33
Lattice="9.84 0.0 0.0 4.92 8.521689973238876 0.0 0.0 0.0 20.0" Properties=species:S:1:pos:R:3:forces:R:3 energy=-264.71292435276126 pbc="T T F"
C       -4.90407279       2.72825394      10.00000000       0.04067341      -0.13095564      -0.00662437
C       -4.95509823       4.14406101      10.00000000      -0.29821802      -0.04686093      -0.00434583
C       -3.70324291       4.80768718      10.00000000       0.20893868      -0.07200246      -0.00544022
C       -3.66224620       6.22199923      10.00000000      -0.07306905       0.33069458       0.02202905
C       -2.38584244       6.87990464      10.00000000      -0.10565113      -0.23541798      -0.03238234
C       -2.34260280       8.31639578      10.00000000      -0.08404045      -0.01368734       0.00441755
C       -1.12011677       9.07272175      10.00000000       0.01234841      -0.03675962      -0.00365575
C       -1.18885840      10.50678026      10.00000000       0.05410579       0.11392946       0.05064021
C       -2.43055663       2.68615078      10.00000000       0.07321703       0.00514404       0.00447599
C       -2.47816054       4.08081684      10.00000000      -0.28908029      -0.03911267       0.02800862
C       -1.24980115       4.73157830      10.00000000       0.07179187       0.06634273       0.01036020
N       -1.23757445       6.11658101      10.00000000      -2.39099193      -0.39930495      -0.96840242
N        0.11440283       8.45981585      10.00000000       0.12959954       1.60740156      -0.89137963
C        1.30792642       9.16224746      10.00000000      -0.30868224       0.54397155       0.04531070
C        1.25803020      10.55216557      10.00000000      -0.29140183       0.01787383       0.06546871
C        0.03720704       2.62807678      10.00000000       0.10086584      -0.02456650       0.03430730
C       -0.01311689       4.01783507      10.00000000      -0.03978642       0.09054623       0.02298737
N        1.17960686       4.71982639      10.00000000       0.11254224      -0.91204782      -0.84704604
C        2.53175081       7.06378150      10.00000000      -0.00068360       0.24650997      -1.02247914
C        2.54438514       8.44872938      10.00000000      -0.32313520       0.44536736       0.04080007
C        3.77341498       9.09884503      10.00000000       0.12475144       0.31018696       0.03696842
C        3.72607066      10.49363473      10.00000000       0.06067572       0.04117118       0.00633650
C        2.48403183       2.67372211      10.00000000       0.01705974       0.12179800       0.04262042
C        2.41500233       4.10756281      10.00000000       0.72139940      -0.03282468      -0.00235950
C        3.63739856       4.86418701      10.00000000       0.26890669      -0.76351659      -0.00460741
C        3.68067784       6.30038185      10.00000000       0.47651288      -0.68087307       0.07900359
C        4.95710118       6.95791183      10.00000000       0.31404669      -0.06083900       0.02388599
C        4.99842492       8.37232189      10.00000000      -0.01742729      -0.17244790      -0.00168603
C        6.25024099       9.03652569      10.00000000       0.03601675      -0.01844787      -0.00134371
C        6.19948042      10.45238139      10.00000000      -0.03607309       0.03686849      -0.00520732
Pt       0.64722720       6.58994552      10.00000000       1.32226133      -0.37070146      -8.78886987
H        0.27722720       6.58994552      11.40000000      -5.18092889       0.06288277       6.11537823
H        1.01722720       6.58994552      11.40000000       5.29682140      -0.02916266       5.94254808
32
Lattice="9.84 0.0 0.0 4.92 8.521689973238876 0.0 0.0 0.0 20.0" Properties=species:S:1:pos:R:3:forces:R:3 energy=-251.47845404227164 pbc="T T F"
C       -4.90407279       2.72825394      10.00000000      -0.36294573      -0.20673221       0.04728057
C       -4.95509823       4.14406101      10.00000000       0.44228199       0.09217199       0.04310814
C       -3.70324291       4.80768718      10.00000000      -0.29922390      -0.19742430       0.07483291
C       -3.66224620       6.22199923      10.00000000       1.15013467       0.57789487      -0.16472192
C       -2.38584244       6.87990464      10.00000000      -4.78954492       2.37221358      -1.60150021
C       -2.34260280       8.31639578      10.00000000       0.28468651      -0.56753995       0.10134982
C       -1.12011677       9.07272175      10.00000000      -0.11371830       0.25927135      -0.05803864
C       -1.18885840      10.50678026      10.00000000      -0.08755770      -0.21202568      -0.13951813
C       -2.43055663       2.68615078      10.00000000       0.00579410      -0.19729713       0.06269854
C       -2.47816054       4.08081684      10.00000000       0.21289854       0.28438221      -0.04954176
C       -1.24980115       4.73157830      10.00000000      -0.26945584      -3.86416688      -1.57894989
N       -1.23757445       6.11658101      10.00000000      -0.49313737      -0.65062209       3.33451259
N        0.11440283       8.45981585      10.00000000       0.07011943       1.42771037       0.06163413
C        1.30792642       9.16224746      10.00000000      -0.42402090      -1.15663368      -0.05672265
C        1.25803020      10.55216557      10.00000000       0.10519259       0.49083270      -0.10780527
C        0.03720704       2.62807678      10.00000000      -0.03968426      -0.34522922       0.05117374
C       -0.01311689       4.01783507      10.00000000       0.05067208       0.60824609      -0.03277920
N        1.17960686       4.71982639      10.00000000      -0.11562893      -0.11763425      -0.58052380
C        2.54438514       8.44872938      10.00000000      -1.40660769      -1.58131339       0.04568286
C        3.77341498       9.09884503      10.00000000      -0.74039170      -1.81294158       0.04688356
C        3.72607066      10.49363473      10.00000000      -0.14965346       0.29953839       0.00979264
C        2.48403183       2.67372211      10.00000000      -0.03148011       0.36758652       0.05088495
C        2.41500233       4.10756281      10.00000000       0.92546700      -0.69654191       0.15801830
C        3.63739856       4.86418701      10.00000000      -1.12885591       0.81679288      -0.03221179
C        3.68067784       6.30038185      10.00000000       2.14288165       0.41747254      -0.28644956
C        4.95710118       6.95791183      10.00000000      -2.06039753      -0.57463308      -0.00707745
C        4.99842492       8.37232189      10.00000000       0.89738974       0.30745177      -0.04089073
C        6.25024099       9.03652569      10.00000000      -0.50803812      -0.14049631       0.03602923
C        6.19948042      10.45238139      10.00000000       0.29330046       0.03030852       0.01246936
Pt       0.64722720       6.58994552      10.00000000       5.10439120       2.90539900      -0.61473339
H        0.64722720       6.58994552      11.55000000       0.37903727       0.26457138       1.30287841
H       -1.23757445       6.11658101      11.10000000       0.96563826       0.79972212      -0.10708312
32
Lattice="9.84 0.0 0.0 4.92 8.521689973238876 0.0 0.0 0.0 20.0" Properties=species:S:1:pos:R:3:forces:R:3 energy=-260.69910283091497 pbc="T T F"
C       -4.90407279       2.72825394      10.00000000      -0.60286279      -0.41585325       0.00036156
C       -4.95509823       4.14406101      10.00000000       0.79436520       0.35412947       0.04174721
C       -3.70324291       4.80768718      10.00000000      -0.14181656       0.40767750      -0.00479599
C       -3.66224620       6.22199923      10.00000000       0.25963634      -0.11461485       0.00478121
C       -2.38584244       6.87990464      10.00000000      -0.95601802       1.26828184       0.07531208
C       -2.34260280       8.31639578      10.00000000      -0.23835562       0.31450072      -0.00179071
C       -1.12011677       9.07272175      10.00000000      -0.19548553       0.38762835       0.01761112
C       -1.18885840      10.50678026      10.00000000      -0.18032171      -0.17600150       0.00971009
C       -2.43055663       2.68615078      10.00000000       0.01447186      -0.23886368       0.00650730
C       -2.47816054       4.08081684      10.00000000      -0.08259788       0.06818987       0.06501967
C       -1.24980115       4.73157830      10.00000000      -0.31020508      -0.52709604       0.04854132
C       -1.23757445       6.11658101      10.00000000       1.33195037      -0.95098962      -0.85491328
N        0.11440283       8.45981585      10.00000000      -0.77354354       1.53970432      -0.54430743
C        1.30792642       9.16224746      10.00000000      -0.49691007      -1.42821128      -0.02841529
C        1.25803020      10.55216557      10.00000000       0.36177318       0.80360739      -0.03172048
C        0.03720704       2.62807678      10.00000000      -0.06737741      -0.43529358       0.11403037
C       -0.01311689       4.01783507      10.00000000       0.04474480      -0.70066395       0.05642807
C        1.17960686       4.71982639      10.00000000      -0.35462983       0.32608450      -0.70656421
C        2.54438514       8.44872938      10.00000000      -0.56506341      -0.99941428       0.04054422
C        3.77341498       9.09884503      10.00000000      -0.75562735      -1.71353259      -0.00238447
C        3.72607066      10.49363473      10.00000000      -0.16390376       0.24696992       0.00116655
C        2.48403183       2.67372211      10.00000000       0.07722080      -0.15425199       0.00565076
C        2.41500233       4.10756281      10.00000000       0.66734214      -0.66732196       0.00222595
C        3.63739856       4.86418701      10.00000000      -0.79462450       1.57714023      -0.00109347
C        3.68067784       6.30038185      10.00000000       1.68178181      -0.45016284      -0.10889667
C        4.95710118       6.95791183      10.00000000      -1.98296515      -0.25101216       0.00001384
C        4.99842492       8.37232189      10.00000000       0.76369098       0.14511382      -0.00800178
C        6.25024099       9.03652569      10.00000000      -0.15017398      -0.06917440       0.00222232
C        6.19948042      10.45238139      10.00000000       0.26149201       0.19271296      -0.00148994
Pt       0.64722720       6.58994552      10.00000000       2.00607867       1.59213050      -0.26245392
H        0.22222720       6.58994552      11.80000000       0.91194684       0.03510098       0.88667196
H        1.07222720       6.58994552      11.80000000      -0.35948911       0.03320895       1.16961409
32
Lattice="9.84 0.0 0.0 4.92 8.521689973238876 0.0 0.0 0.0 20.0" Properties=species:S:1:pos:R:3:forces:R:3 energy=-256.4017463614817 pbc="T T F"
C       -4.90407279       2.72825394      10.00000000      -0.49205216      -0.41811961       0.00007101
C       -4.95509823       4.14406101      10.00000000       0.71217553       0.27685503       0.05116475
C       -3.70324291       4.80768718      10.00000000      -0.06497690       0.41351632      -0.00872208
C       -3.66224620       6.22199923      10.00000000       0.39420762      -0.22180298       0.04528845
C       -2.38584244       6.87990464      10.00000000      -0.13511554       0.35654376      -0.01092036
C       -2.34260280       8.31639578      10.00000000       0.08385179       0.09041866      -0.00181178
C       -1.12011677       9.07272175      10.00000000       0.24017717       0.11428784      -0.00530345
C       -1.18885840      10.50678026      10.00000000      -0.27131920      -0.16976568       0.00304139
C       -2.43055663       2.68615078      10.00000000       0.21952505      -0.28225308       0.01235668
C       -2.47816054       4.08081684      10.00000000      -0.09106830       0.33040689       0.09224031
C       -1.24980115       4.73157830      10.00000000      -0.62397302       0.39954443      -0.00706794
N       -1.23757445       6.11658101      10.00000000      -0.48399620      -1.61143514      -0.72997359
N        0.11440283       8.45981585      10.00000000      -0.97859276       1.94667447      -0.24682407
C        1.30792642       9.16224746      10.00000000      -0.33940466      -1.63774934      -0.05601826
C        1.25803020      10.55216557      10.00000000       0.29055754       0.79483141      -0.04456169
C        0.03720704       2.62807678      10.00000000      -0.23536392      -0.44801822       0.02384897
C       -0.01311689       4.01783507      10.00000000      -0.16726597      -0.19455261       0.03021473
C        1.17960686       4.71982639      10.00000000      -0.37231599       0.71002630      -0.44917550
C        2.54438514       8.44872938      10.00000000      -0.92313317      -0.88760529       0.03213798
C        3.77341498       9.09884503      10.00000000      -0.75278367      -1.91242899       0.01870096
C        3.72607066      10.49363473      10.00000000      -0.12331100       0.17507457      -0.00622309
C        2.48403183       2.67372211      10.00000000       0.07684236      -0.18381415       0.00954635
C        2.41500233       4.10756281      10.00000000       0.78691357      -0.63378341       0.00483451
C        3.63739856       4.86418701      10.00000000      -0.72101049       1.61758852       0.02601054
C        3.68067784       6.30038185      10.00000000       1.54130598      -0.51022057      -0.23594559
C        4.95710118       6.95791183      10.00000000      -1.90312470      -0.05364664       0.02243479
C        4.99842492       8.37232189      10.00000000       0.79200889       0.33210705      -0.00591737
C        6.25024099       9.03652569      10.00000000      -0.29417565      -0.28960456       0.00241464
C        6.19948042      10.45238139      10.00000000       0.22720644       0.18776785       0.00243243
Pt       0.64722720       6.58994552      10.00000000       3.24898849       1.59730593      -7.52570984
H        0.64722720       6.58994552      11.40000000       0.12414782      -0.03636923       5.00618139
H        0.64722720       6.58994552      12.14000000       0.24361326       0.14201627       3.94251341
32
Lattice="9.84 0.0 0.0 4.92 8.521689973238876 0.0 0.0 0.0 20.0" Properties=species:S:1:pos:R:3:forces:R:3 energy=-259.5678485646485 pbc="T T F"
C       -4.90407279       2.72825394      10.00000000      -0.60262372      -0.42525116       0.00149659
C       -4.95509823       4.14406101      10.00000000       0.79407195       0.36543389       0.03170722
C       -3.70324291       4.80768718      10.00000000      -0.13923800       0.40967420      -0.00240847
C       -3.66224620       6.22199923      10.00000000       0.26398784      -0.11106733       0.00401244
C       -2.38584244       6.87990464      10.00000000      -0.95866158       1.28132478       0.06374286
C       -2.34260280       8.31639578      10.00000000      -0.25294752       0.26152621      -0.00416289
C       -1.12011677       9.07272175      10.00000000      -0.13415233       0.39201400       0.01650867
C       -1.18885840      10.50678026      10.00000000      -0.17755956      -0.15727878       0.00913052
C       -2.43055663       2.68615078      10.00000000       0.01186267      -0.23330353       0.00621286
C       -2.47816054       4.08081684      10.00000000      -0.08371291       0.06785076       0.06105424
C       -1.24980115       4.73157830      10.00000000      -0.31783328      -0.48937047       0.04555528
C       -1.23757445       6.11658101      10.00000000       1.52613184      -0.92138024      -0.68808628
N        0.11440283       8.45981585      10.00000000      -0.78563408       1.57420059      -0.46019978
C        1.30792642       9.16224746      10.00000000      -0.53679727      -1.40486017      -0.02320648
C        1.25803020      10.55216557      10.00000000       0.36128310       0.81316512      -0.02199804
C        0.03720704       2.62807678      10.00000000      -0.07324332      -0.45126012       0.10024959
C       -0.01311689       4.01783507      10.00000000       0.07523472      -0.69269646       0.03309251
C        1.17960686       4.71982639      10.00000000      -0.32219433       0.30061260      -0.61680110
C        2.54438514       8.44872938      10.00000000      -0.50599660      -1.04532543       0.01990243
C        3.77341498       9.09884503      10.00000000      -0.78539710      -1.69110425      -0.00349159
C        3.72607066      10.49363473      10.00000000      -0.16124762       0.26088161       0.00145587
C        2.48403183       2.67372211      10.00000000       0.08042376      -0.15739891       0.00760001
C        2.41500233       4.10756281      10.00000000       0.62757637      -0.65681189       0.00618693
C        3.63739856       4.86418701      10.00000000      -0.79306679       1.60109774      -0.00085908
C        3.68067784       6.30038185      10.00000000       1.68345956      -0.43761542      -0.08751949
C        4.95710118       6.95791183      10.00000000      -1.97956480      -0.26622962      -0.00173821
C        4.99842492       8.37232189      10.00000000       0.76183027       0.11115557      -0.00390167
C        6.25024099       9.03652569      10.00000000      -0.14968045      -0.06136912       0.00145756
C        6.19948042      10.45238139      10.00000000       0.26789495       0.20488087       0.00013690
Pt       0.64722720       6.58994552      10.00000000       2.00774873       1.52984405      -7.40435333
H        0.64722720       6.58994552      11.40000000       0.03355986      -0.03990450       4.89133489
H        0.64722720       6.58994552      12.14000000       0.27162167       0.07433127       3.99623202
32
Lattice="9.84 0.0 0.0 4.92 8.521689973238876 0.0 0.0 0.0 20.0" Properties=species:S:1:pos:R:3:forces:R:3 energy=-259.93040270878146 pbc="T T F"
C       -4.90407279       2.72825394      10.00000000      -0.64420400      -0.41290426       0.00132519
C       -4.95509823       4.14406101      10.00000000       0.93526623       0.32532102       0.01662750
C       -3.70324291       4.80768718      10.00000000      -0.20204983       0.42902324       0.00565630
C       -3.66224620       6.22199923      10.00000000       0.31671140      -0.14462161       0.00429359
C       -2.38584244       6.87990464      10.00000000      -1.41545925       1.49106067       0.00851315
C       -2.34260280       8.31639578      10.00000000      -0.44400656       0.21069147      -0.08872687
C       -1.12011677       9.07272175      10.00000000      -1.53084122       0.74100218       0.03226331
C       -1.18885840      10.50678026      10.00000000      -0.44262012      -0.10987762       0.00165112
C       -2.43055663       2.68615078      10.00000000      -0.07441307      -0.15502838       0.01191298
C       -2.47816054       4.08081684      10.00000000      -0.01279140       0.15299689       0.02758793
C       -1.24980115       4.73157830      10.00000000      -0.38458312      -0.83710874      -0.06508309
C       -1.23757445       6.11658101      10.00000000       2.04759650      -0.35583577      -0.33893230
C        0.11440283       8.45981585      10.00000000      -0.61354066      -1.14735300      -0.34889184
C        1.30792642       9.16224746      10.00000000       0.83097814      -0.93500748      -0.00456945
C        1.25803020      10.55216557      10.00000000       0.69086914       1.07085206       0.00314687
C        0.03720704       2.62807678      10.00000000      -0.04322219      -0.56947438       0.07708278
C       -0.01311689       4.01783507      10.00000000      -0.14376808      -0.58348964      -0.02850981
C        1.17960686       4.71982639      10.00000000       0.52168452       0.03396415      -0.42056256
C        2.54438514       8.44872938      10.00000000      -0.22062778      -0.63764480      -0.10302728
C        3.77341498       9.09884503      10.00000000      -0.69610275      -1.81202469       0.01156147
C        3.72607066      10.49363473      10.00000000      -0.40349825       0.43318941       0.02181335
C        2.48403183       2.67372211      10.00000000       0.28226180       0.02071511       0.00777049
C        2.41500233       4.10756281      10.00000000       0.46395211      -0.96579716      -0.02897472
C        3.63739856       4.86418701      10.00000000      -0.89606430       1.61176724      -0.03210561
C        3.68067784       6.30038185      10.00000000       1.66556121      -0.58035714      -0.03420584
C        4.95710118       6.95791183      10.00000000      -1.91924690      -0.21268084       0.03657133
C        4.99842492       8.37232189      10.00000000       0.77515088      -0.16637765      -0.00781382
C        6.25024099       9.03652569      10.00000000      -0.33254643      -0.05217511       0.00245713
C        6.19948042      10.45238139      10.00000000       0.41621225       0.25884488       0.00469091
Pt       0.64722720       6.58994552      10.00000000       1.23281415       2.83560372       2.52364398
H       -0.50277280       6.58994552      12.20000000       1.41699674       0.10940188      -0.65628499
H        1.79722720       6.58994552      12.20000000      -1.16867560      -0.04668026      -0.64684365
32
Lattice="9.84 0.0 0.0 4.92 8.521689973238876 0.0 0.0 0.0 20.0" Properties=species:S:1:pos:R:3:forces:R:3 energy=-252.5557035933061 pbc="T T F"
C       -4.90407279       2.72825394      10.00000000      -0.25482189      -0.19580223      -0.00403149
C       -4.95509823       4.14406101      10.00000000       0.38204579      -0.10135194      -0.07111459
C       -3.70324291       4.80768718      10.00000000      -0.02934474       0.25173074       0.01300611
C       -3.66224620       6.22199923      10.00000000       0.47580278       0.06451848      -0.01734031
C       -2.38584244       6.87990464      10.00000000      -0.28553203       0.13477522      -0.08417016
C       -2.34260280       8.31639578      10.00000000       0.09923682       0.11684418       0.04716801
C       -1.12011677       9.07272175      10.00000000       0.01636791      -0.16725138      -0.05948073
C       -1.18885840      10.50678026      10.00000000      -0.06721470      -0.05619782      -0.02866791
C       -2.43055663       2.68615078      10.00000000       0.12268184      -0.18801138       0.00476075
C       -2.47816054       4.08081684      10.00000000      -0.08968302       0.09751186       0.04975722
C       -1.24980115       4.73157830      10.00000000      -0.22850954       0.47779347      -0.13328444
N       -1.23757445       6.11658101      10.00000000      -1.37929784      -1.40454137      -1.03653398
N        0.11440283       8.45981585      10.00000000      -0.38634065       1.14947551      -0.40747142
C        1.30792642       9.16224746      10.00000000       0.12643115      -1.11115292       0.06430695
C        1.25803020      10.55216557      10.00000000      -0.00637370       0.52710555       0.08719961
C        0.03720704       2.62807678      10.00000000      -0.04923604      -0.18716862       0.05106459
C       -0.01311689       4.01783507      10.00000000       0.60993241      -0.00886274       0.04594838
N        1.17960686       4.71982639      10.00000000       0.00963232      -0.56963800      -0.81735426
C        2.54438514       8.44872938      10.00000000      -1.84801827      -0.98748060      -0.36051709
C        3.77341498       9.09884503      10.00000000      -0.84781158      -1.71598906       0.01057148
C        3.72607066      10.49363473      10.00000000      -0.11438112       0.22737617       0.00148089
C        2.48403183       2.67372211      10.00000000      -0.11739082      -0.02962508       0.09388755
C        2.41500233       4.10756281      10.00000000       0.02409698      -0.47333150       0.15728766
C        3.63739856       4.86418701      10.00000000      -0.54031346       1.45218174      -0.16332606
C        3.68067784       6.30038185      10.00000000       1.65558070      -0.42861587       0.22488933
C        4.95710118       6.95791183      10.00000000      -1.59864939      -0.48264049      -0.07039039
C        4.99842492       8.37232189      10.00000000       0.77631557       0.26564768      -0.00645540
C        6.25024099       9.03652569      10.00000000      -0.30526945      -0.30072566      -0.01515446
C        6.19948042      10.45238139      10.00000000       0.20314058       0.14263767      -0.01699556
Pt       0.64722720       6.58994552      10.00000000       2.72696110       3.16113255       2.75651540
H       -0.05277280       6.58994552      11.80000000       2.85646659       0.11584688      -0.22227140
H        1.34722720       6.58994552      11.80000000      -1.92567645       0.22720498      -0.12421202
33
Lattice="9.84 0.0 0.0 4.92 8.521689973238876 0.0 0.0 0.0 20.0" Properties=species:S:1:pos:R:3:forces:R:3 energy=-276.0739416656702 pbc="T T F"
C       -4.90407279       2.72825394      10.00000000      -0.43711849      -0.20344348      -0.00007035
C       -4.95509823       4.14406101      10.00000000       0.14884716      -0.08786084      -0.00030948
C       -3.70324291       4.80768718      10.00000000      -0.05381968       0.46484029      -0.00008386
C       -3.66224620       6.22199923      10.00000000      -0.09087902       0.41522590       0.00018022
C       -2.38584244       6.87990464      10.00000000      -1.40105761       0.78324756       0.00152633
C       -2.34260280       8.31639578      10.00000000      -0.41761686       0.25659725      -0.00092385
C       -1.12011677       9.07272175      10.00000000      -1.40440512       0.81124407       0.00103769
C       -1.18885840      10.50678026      10.00000000      -0.36509779      -0.12216490       0.00050981
C       -2.43055663       2.68615078      10.00000000       0.01719121      -0.00402470       0.00041711
C       -2.47816054       4.08081684      10.00000000      -0.20920592      -0.29695868       0.00161685
C       -1.24980115       4.73157830      10.00000000      -0.65918659      -0.77907138      -0.00115698
C       -1.23757445       6.11658101      10.00000000       0.81961952       0.34024102      -0.01900984
C        0.11440283       8.45981585      10.00000000       0.14120137      -0.91200546      -0.01634138
C        1.30792642       9.16224746      10.00000000       0.35110376       1.00481951      -0.00009966
C        1.25803020      10.55216557      10.00000000       0.12595891       0.29933646       0.00107024
C        0.03720704       2.62807678      10.00000000      -0.12965173      -0.30879907       0.00107513
C       -0.01311689       4.01783507      10.00000000      -0.38242137      -1.00923914      -0.00009608
C        1.17960686       4.71982639      10.00000000      -0.08268614       0.93455792      -0.01635915
C        2.53175081       7.06378150      10.00000000      -0.79458141      -0.35606971      -0.01900494
C        2.54438514       8.44872938      10.00000000       0.67310473       0.77185322      -0.00114836
C        3.77341498       9.09884503      10.00000000       0.19653783       0.30953484       0.00161397
C        3.72607066      10.49363473      10.00000000      -0.02107079      -0.00034160       0.00041762
C        2.48403183       2.67372211      10.00000000       0.37679395       0.12058402       0.00050592
C        2.41500233       4.10756281      10.00000000       1.38787890      -0.79757031       0.00103410
C        3.63739856       4.86418701      10.00000000       0.42006602      -0.26740741      -0.00092835
C        3.68067784       6.30038185      10.00000000       1.37860118      -0.76914646       0.00154302
C        4.95710118       6.95791183      10.00000000       0.09714816      -0.40625130       0.00017552
C        4.99842492       8.37232189      10.00000000       0.05720614      -0.46597747      -0.00007812
C        6.25024099       9.03652569      10.00000000      -0.15721027       0.08228042      -0.00031330
C        6.19948042      10.45238139      10.00000000       0.42429194       0.19105031      -0.00006794
Pt       0.64722720       6.58994552      10.00000000      -0.00209401       0.00074357      -0.04003061
H        0.27722720       6.58994552      13.20000000      -0.49954482       0.00333217       0.05324353
H        1.01722720       6.58994552      13.20000000       0.49954917      -0.00332449       0.05322632
33
Lattice="9.84 0.0 0.0 4.92 8.521689973238876 0.0 0.0 0.0 20.0" Properties=species:S:1:pos:R:3:forces:R:3 energy=-266.02956382465817 pbc="T T F"
C       -4.90407279       2.72825394      10.00000000       0.00361931      -0.02054952      -0.00115808
C       -4.95509823       4.14406101      10.00000000      -0.00785962       0.00384228       0.00000282
C       -3.70324291       4.80768718      10.00000000       0.00784476      -0.00942973      -0.00116502
C       -3.66224620       6.22199923      10.00000000      -0.01682595       0.03383594       0.00202285
C       -2.38584244       6.87990464      10.00000000       0.01062111      -0.01783962      -0.00157604
C       -2.34260280       8.31639578      10.00000000      -0.00834307       0.01868680       0.00392916
C       -1.12011677       9.07272175      10.00000000      -0.00205610      -0.01317792      -0.00158369
C       -1.18885840      10.50678026      10.00000000       0.00159181       0.00667275       0.00203410
C       -2.43055663       2.68615078      10.00000000      -0.00277399       0.00880502      -0.00090205
C       -2.47816054       4.08081684      10.00000000       0.00157189       0.00626083       0.00075574
C       -1.24980115       4.73157830      10.00000000       0.03158037       0.00887335       0.00549225
N       -1.23757445       6.11658101      10.00000000      -0.05983568      -0.01184432      -0.02579176
N        0.11440283       8.45981585      10.00000000       0.00413346       0.03489397      -0.02578527
C        1.30792642       9.16224746      10.00000000       0.01358668       0.01253050       0.00548204
C        1.25803020      10.55216557      10.00000000      -0.03127813      -0.03406904       0.00075481
C        0.03720704       2.62807678      10.00000000       0.02745257       0.02450158       0.00075147
C       -0.01311689       4.01783507      10.00000000      -0.04264475      -0.01584776       0.00548932
N        1.17960686       4.71982639      10.00000000       0.04998839      -0.00683736      -0.02587481
N        2.53175081       7.06378150      10.00000000       0.08663810      -0.00623856      -0.02578803
C        2.54438514       8.44872938      10.00000000      -0.01942731      -0.01693307       0.00549001
C        3.77341498       9.09884503      10.00000000      -0.01323276       0.00511080       0.00076885
C        3.72607066      10.49363473      10.00000000      -0.00231733      -0.01223844      -0.00089512
C        2.48403183       2.67372211      10.00000000       0.00936051      -0.00824706       0.00202838
C        2.41500233       4.10756281      10.00000000      -0.01121216       0.02384457      -0.00158208
C        3.63739856       4.86418701      10.00000000       0.01044914      -0.02955988       0.00392413
C        3.68067784       6.30038185      10.00000000      -0.03317764       0.03183106      -0.00157849
C        4.95710118       6.95791183      10.00000000       0.02315565      -0.02437061       0.00202134
C        4.99842492       8.37232189      10.00000000      -0.00473301       0.00872092      -0.00116007
C        6.25024099       9.03652569      10.00000000      -0.00037548      -0.00966081       0.00000826
C        6.19948042      10.45238139      10.00000000      -0.01717923       0.00864239      -0.00116840
Pt       0.64722720       6.58994552      10.00000000      -0.00251359      -0.00024575      -0.10398044
H        0.64722720       6.58994552      12.60000000       0.00001492       0.00003196      -0.62199179
H        0.64722720       6.58994552      13.34000000       0.00000023       0.00002042       0.80574426
32
Lattice="9.84 0.0 0.0 4.92 8.521689973238876 0.0 0.0 0.0 20.0" Properties=species:S:1:pos:R:3:forces:R:3 energy=-253.72008638555934 pbc="T T F"
C       -4.90407279       2.72825394      10.00000000      -0.27731003      -0.19645664      -0.00432418
C       -4.95509823       4.14406101      10.00000000       0.42637643      -0.08283840      -0.03504265
C       -3.70324291       4.80768718      10.00000000      -0.05527361       0.26895711       0.00316790
C       -3.66224620       6.22199923      10.00000000       0.47648591       0.03806156      -0.00974834
C       -2.38584244       6.87990464      10.00000000      -0.15228662       0.28790086      -0.04179108
C       -2.34260280       8.31639578      10.00000000       0.06279449       0.07914706       0.02404200
C       -1.12011677       9.07272175      10.00000000       0.02819974      -0.12244053      -0.03216561
C       -1.18885840      10.50678026      10.00000000      -0.07438807      -0.06396233      -0.00086838
C       -2.43055663       2.68615078      10.00000000       0.13330788      -0.21975479      -0.00153714
C       -2.47816054       4.08081684      10.00000000      -0.07367341       0.15049444       0.00777545
C       -1.24980115       4.73157830      10.00000000      -0.11284134       0.40566436      -0.03430086
N       -1.23757445       6.11658101      10.00000000      -0.06176358      -1.04213101      -0.29600634
N        0.11440283       8.45981585      10.00000000      -0.45870981       0.66746961      -0.17927757
C        1.30792642       9.16224746      10.00000000       0.28707923      -1.11883598       0.02905973
C        1.25803020      10.55216557      10.00000000       0.02079830       0.59427452       0.04292978
C        0.03720704       2.62807678      10.00000000      -0.06214382      -0.16669366       0.01746731
C       -0.01311689       4.01783507      10.00000000       0.64041855      -0.04982271       0.01881429
N        1.17960686       4.71982639      10.00000000       0.03698136      -0.31047917      -0.29723021
C        2.54438514       8.44872938      10.00000000      -1.84927327      -0.87495423      -0.12418606
C        3.77341498       9.09884503      10.00000000      -0.95472807      -1.65697249       0.00120947
C        3.72607066      10.49363473      10.00000000      -0.07685948       0.22944306       0.00075369
C        2.48403183       2.67372211      10.00000000      -0.07296280       0.00255303       0.03432607
C        2.41500233       4.10756281      10.00000000      -0.11619303      -0.53940925       0.04435183
C        3.63739856       4.86418701      10.00000000      -0.50282582       1.51497331      -0.06022881
C        3.68067784       6.30038185      10.00000000       1.38323194      -0.62924935       0.13700808
C        4.95710118       6.95791183      10.00000000      -1.61469255      -0.40011947      -0.02888585
C        4.99842492       8.37232189      10.00000000       0.80851185       0.23899711      -0.00193531
C        6.25024099       9.03652569      10.00000000      -0.30033781      -0.30987726      -0.00465572
C        6.19948042      10.45238139      10.00000000       0.15207255       0.13504767      -0.00910416
Pt       0.64722720       6.58994552      10.00000000       2.11156274       3.08453716       0.01167010
H        0.09722720       6.58994552      12.20000000       4.18290504       0.03139850       0.40272824
H        1.19722720       6.58994552      12.20000000      -3.93172452       0.05844358       0.38264221
33
Lattice="9.84 0.0 0.0 4.92 8.521689973238876 0.0 0.0 0.0 20.0" Properties=species:S:1:pos:R:3:forces:R:3 energy=-260.7441274407748 pbc="T T F"
C       -4.90407279       2.72825394      10.00000000      -0.01569584      -0.07333046      -0.00397899
C       -4.95509823       4.14406101      10.00000000      -0.03797544       0.03235317      -0.00002511
C       -3.70324291       4.80768718      10.00000000       0.02966433       0.03621453       0.00070720
C       -3.66224620       6.22199923      10.00000000      -0.01967016       0.01100976       0.03454902
C       -2.38584244       6.87990464      10.00000000       0.01420845      -0.05790409      -0.09652619
C       -2.34260280       8.31639578      10.00000000      -0.01328280      -0.00793353       0.03287895
C       -1.12011677       9.07272175      10.00000000       0.07715602      -0.01208688       0.00024113
C       -1.18885840      10.50678026      10.00000000       0.00604505       0.02858746       0.02012870
C       -2.43055663       2.68615078      10.00000000      -0.01062160       0.01241946       0.00595747
C       -2.47816054       4.08081684      10.00000000      -0.04981795       0.00689949       0.02044824
C       -1.24980115       4.73157830      10.00000000      -0.06850896       0.27011353      -0.02443819
N       -1.23757445       6.11658101      10.00000000      -0.57805185      -0.35195148      -0.56125147
N        0.11440283       8.45981585      10.00000000       0.06300529       0.39912979      -0.30903454
C        1.30792642       9.16224746      10.00000000      -0.26207365      -0.06142361       0.03475922
C        1.25803020      10.55216557      10.00000000      -0.04254809       0.03198255       0.01895746
C        0.03720704       2.62807678      10.00000000       0.03874281      -0.04174762       0.01900884
C       -0.01311689       4.01783507      10.00000000       0.23331809       0.05836020       0.03482605
N        1.17960686       4.71982639      10.00000000      -0.00935845      -0.37131980      -0.30895780
N        2.53175081       7.06378150      10.00000000       0.60434107       0.33469691      -0.56086003
C        2.54438514       8.44872938      10.00000000       0.08074559      -0.27826543      -0.02457301
C        3.77341498       9.09884503      10.00000000       0.03817321       0.00441890       0.02050467
C        3.72607066      10.49363473      10.00000000       0.00564857      -0.01583168       0.00600943
C        2.48403183       2.67372211      10.00000000       0.00492459      -0.03006293       0.02010715
C        2.41500233       4.10756281      10.00000000      -0.09031044       0.02263660       0.00032058
C        3.63739856       4.86418701      10.00000000       0.01535654      -0.00274466       0.03282839
C        3.68067784       6.30038185      10.00000000      -0.03612441       0.07145358      -0.09641572
C        4.95710118       6.95791183      10.00000000       0.02589544      -0.00166113       0.03452170
C        4.99842492       8.37232189      10.00000000      -0.02659436      -0.03679746       0.00069902
C        6.25024099       9.03652569      10.00000000       0.02978703      -0.03827035      -0.00001394
C        6.19948042      10.45238139      10.00000000       0.00203171       0.06151741      -0.00398924
Pt       0.64722720       6.58994552      10.00000000      -0.00267474      -0.00030658       1.46558155
H       -0.50277280       6.58994552      12.20000000       1.10954086       0.05619625       0.09011925
H        1.79722720       6.58994552      12.20000000      -1.10946879      -0.05650693       0.08963039
32
Lattice="9.84 0.0 0.0 4.92 8.521689973238876 0.0 0.0 0.0 20.0" Properties=species:S:1:pos:R:3:forces:R:3 energy=-261.4080945577519 pbc="T T F"
C       -4.90407279       2.72825394      10.00000000      -0.62245559      -0.43166650      -0.00035092
C       -4.95509823       4.14406101      10.00000000       0.80585666       0.38285624       0.00990830
C       -3.70324291       4.80768718      10.00000000      -0.16416026       0.41999267      -0.00062419
C       -3.66224620       6.22199923      10.00000000       0.26920426      -0.09327837       0.00836204
C       -2.38584244       6.87990464      10.00000000      -1.09170694       1.31287129       0.01967614
C       -2.34260280       8.31639578      10.00000000      -0.27430488       0.15054827      -0.00189882
C       -1.12011677       9.07272175      10.00000000      -0.01393971       0.47391794       0.00174643
C       -1.18885840      10.50678026      10.00000000      -0.19092639      -0.17267642       0.00570843
C       -2.43055663       2.68615078      10.00000000      -0.01775241      -0.21942473       0.00420037
C       -2.47816054       4.08081684      10.00000000      -0.05935966       0.05911063       0.03475809
C       -1.24980115       4.73157830      10.00000000      -0.40453060      -0.47769246       0.00952950
C       -1.23757445       6.11658101      10.00000000       2.09074607      -0.79243512      -0.32119708
N        0.11440283       8.45981585      10.00000000      -0.72870889       1.20886076      -0.20336374
C        1.30792642       9.16224746      10.00000000      -0.60820775      -1.38314661      -0.00826433
C        1.25803020      10.55216557      10.00000000       0.36281324       0.84208108      -0.00442586
C        0.03720704       2.62807678      10.00000000      -0.08866524      -0.48401382       0.03743453
C       -0.01311689       4.01783507      10.00000000       0.04455460      -0.71806384       0.01405602
C        1.17960686       4.71982639      10.00000000      -0.28092508       0.71034815      -0.31113527
C        2.54438514       8.44872938      10.00000000      -0.55455656      -1.21861282       0.00277346
C        3.77341498       9.09884503      10.00000000      -0.74576840      -1.66158739       0.00089289
C        3.72607066      10.49363473      10.00000000      -0.16554575       0.24239910       0.00123271
C        2.48403183       2.67372211      10.00000000       0.13244662      -0.09234809       0.01550347
C        2.41500233       4.10756281      10.00000000       0.60303345      -0.75900857       0.00996515
C        3.63739856       4.86418701      10.00000000      -0.79672459       1.65300168      -0.00648576
C        3.68067784       6.30038185      10.00000000       1.65738703      -0.45584437      -0.02881938
C        4.95710118       6.95791183      10.00000000      -1.98538360      -0.26294742      -0.00122337
C        4.99842492       8.37232189      10.00000000       0.76166728       0.07329246      -0.00120086
C        6.25024099       9.03652569      10.00000000      -0.17992091      -0.06568925      -0.00117285
C        6.19948042      10.45238139      10.00000000       0.28592287       0.21324417      -0.00063668
Pt       0.64722720       6.58994552      10.00000000       1.82985963       1.51525133      -1.35177178
H        0.64722720       6.58994552      11.80000000       0.03684279      -0.02334158      -0.16571582
H        0.64722720       6.58994552      12.54000000       0.09873361       0.05857042       2.23293371
33
Lattice="9.84 0.0 0.0 4.92 8.521689973238876 0.0 0.0 0.0 20.0" Properties=species:S:1:pos:R:3:forces:R:3 energy=-269.2064762771152 pbc="T T F"
C       -4.90407279       2.72825394      10.00000000      -0.13531537      -0.10009420       0.01101519
C       -4.95509823       4.14406101      10.00000000       0.24010173       0.13103011       0.06096118
C       -3.70324291       4.80768718      10.00000000      -0.09626389       0.27193548       0.00236197
C       -3.66224620       6.22199923      10.00000000      -0.10840973      -0.10175830      -0.04281173
C       -2.38584244       6.87990464      10.00000000      -0.53954502       0.98739900       0.03273624
C       -2.34260280       8.31639578      10.00000000      -0.16851336       0.60714349       0.01419954
C       -1.12011677       9.07272175      10.00000000      -0.81707319       0.35136444       0.09277539
C       -1.18885840      10.50678026      10.00000000      -0.16506880      -0.25624053       0.01777667
C       -2.43055663       2.68615078      10.00000000      -0.11101812      -0.14819785      -0.00967713
C       -2.47816054       4.08081684      10.00000000       0.08945795      -0.02404077      -0.06976721
C       -1.24980115       4.73157830      10.00000000      -0.48173753      -0.45398934       0.03164806
C       -1.23757445       6.11658101      10.00000000       0.77150005      -0.56039629      -0.09498970
N        0.11440283       8.45981585      10.00000000      -0.33327986       0.92853297      -0.73725238
C        1.30792642       9.16224746      10.00000000       0.19045797      -0.52391461      -0.09662177
C        1.25803020      10.55216557      10.00000000       0.07516759       0.36536447       0.10823753
C        0.03720704       2.62807678      10.00000000      -0.04481266      -0.02844516       0.03411993
C       -0.01311689       4.01783507      10.00000000      -0.11795709      -0.85258639       0.06961770
C        1.17960686       4.71982639      10.00000000      -0.62279764       0.06434012      -0.22862329
N        2.53175081       7.06378150      10.00000000       0.55142064       0.12061883       2.62648904
C        2.54438514       8.44872938      10.00000000       0.05057327       3.62688503      -1.25149564
C        3.77341498       9.09884503      10.00000000      -0.12528475      -0.02585612      -0.02751135
C        3.72607066      10.49363473      10.00000000       0.02301160      -0.14435999       0.01439431
C        2.48403183       2.67372211      10.00000000       0.10477017      -0.27664985      -0.07723422
C        2.41500233       4.10756281      10.00000000       0.53168198      -0.20657769       0.00030565
C        3.63739856       4.86418701      10.00000000       0.52919962       0.96614295      -0.05458024
C        3.68067784       6.30038185      10.00000000       4.27822327      -2.91483819      -1.31567111
C        4.95710118       6.95791183      10.00000000      -0.48080763      -0.36286007      -0.02561509
C        4.99842492       8.37232189      10.00000000       0.22088779       0.13889601       0.01113441
C        6.25024099       9.03652569      10.00000000       0.11309273      -0.02940195       0.00146764
C        6.19948042      10.45238139      10.00000000       0.16368357       0.14183231       0.00072442
Pt       0.64722720       6.58994552      10.00000000      -2.72673447      -0.74409808       0.56360306
H        0.64722720       6.58994552      11.55000000      -0.10258670      -0.31896853       0.17677177
H        2.53175081       7.06378150      11.10000000      -0.75279706      -0.62814058       0.09464879
32
Lattice="9.84 0.0 0.0 4.92 8.521689973238876 0.0 0.0 0.0 20.0" Properties=species:S:1:pos:R:3:forces:R:3 energy=-256.1251128923403 pbc="T T F"
C       -4.90407279       2.72825394      10.00000000      -0.53171541      -0.42017667      -0.00248713
C       -4.95509823       4.14406101      10.00000000       0.73896144       0.28717542       0.03009322
C       -3.70324291       4.80768718      10.00000000      -0.09684045       0.42632336      -0.00529755
C       -3.66224620       6.22199923      10.00000000       0.39899207      -0.23677781       0.03100227
C       -2.38584244       6.87990464      10.00000000      -0.16034876       0.41582727      -0.04456304
C       -2.34260280       8.31639578      10.00000000       0.07306408       0.04524576       0.01166664
C       -1.12011677       9.07272175      10.00000000       0.26803571       0.16417779      -0.01331152
C       -1.18885840      10.50678026      10.00000000      -0.27689095      -0.18184123       0.00231878
C       -2.43055663       2.68615078      10.00000000       0.21673636      -0.29087690       0.00998191
C       -2.47816054       4.08081684      10.00000000      -0.06533749       0.35486767       0.06211694
C       -1.24980115       4.73157830      10.00000000      -0.58355351       0.34385129      -0.05660941
N       -1.23757445       6.11658101      10.00000000      -0.16844930      -1.56072116      -0.59602530
N        0.11440283       8.45981585      10.00000000      -0.92149188       1.67791056      -0.16552083
C        1.30792642       9.16224746      10.00000000      -0.36020066      -1.65196485      -0.03270336
C        1.25803020      10.55216557      10.00000000       0.32454188       0.81773266      -0.02422457
C        0.03720704       2.62807678      10.00000000      -0.23876763      -0.43469215       0.01791102
C       -0.01311689       4.01783507      10.00000000      -0.20773441      -0.22441250       0.02377893
C        1.17960686       4.71982639      10.00000000      -0.40426972       1.03545078      -0.31036749
C        2.54438514       8.44872938      10.00000000      -0.92335254      -0.83629224       0.00566092
C        3.77341498       9.09884503      10.00000000      -0.75371255      -1.92126488       0.01206737
C        3.72607066      10.49363473      10.00000000      -0.12345945       0.16591330      -0.00207591
C        2.48403183       2.67372211      10.00000000       0.11273243      -0.14460154       0.01042702
C        2.41500233       4.10756281      10.00000000       0.77541130      -0.71950364      -0.00545541
C        3.63739856       4.86418701      10.00000000      -0.74947485       1.62359023       0.00429146
C        3.68067784       6.30038185      10.00000000       1.50102348      -0.57139843      -0.12064527
C        4.95710118       6.95791183      10.00000000      -1.90181731      -0.01727764       0.01768901
C        4.99842492       8.37232189      10.00000000       0.80464786       0.32839527      -0.01095009
C        6.25024099       9.03652569      10.00000000      -0.29765995      -0.27514583       0.00191318
C        6.19948042      10.45238139      10.00000000       0.20942482       0.16431154       0.00051374
Pt       0.64722720       6.58994552      10.00000000       2.98051180       1.49372699       1.10820915
H       -0.05277280       6.58994552      12.20000000       3.82553882       0.08947327       0.03162728
H        1.34722720       6.58994552      12.20000000      -3.46234300       0.05734876       0.00106119
32
Lattice="9.84 0.0 0.0 4.92 8.521689973238876 0.0 0.0 0.0 20.0" Properties=species:S:1:pos:R:3:forces:R:3 energy=-258.22446413077006 pbc="T T F"
C       -4.90407279       2.72825394      10.00000000      -0.53867049      -0.41695228      -0.00194676
C       -4.95509823       4.14406101      10.00000000       0.74949317       0.28414680       0.01312213
C       -3.70324291       4.80768718      10.00000000      -0.10372035       0.44106878      -0.00359028
C       -3.66224620       6.22199923      10.00000000       0.39785969      -0.23916865       0.01578503
C       -2.38584244       6.87990464      10.00000000      -0.14413863       0.43532246      -0.02018464
C       -2.34260280       8.31639578      10.00000000       0.06737758       0.04302477       0.00683221
C       -1.12011677       9.07272175      10.00000000       0.26137909       0.17864456      -0.01358830
C       -1.18885840      10.50678026      10.00000000      -0.28767317      -0.18880711       0.00230309
C       -2.43055663       2.68615078      10.00000000       0.22363514      -0.29860003       0.00431135
C       -2.47816054       4.08081684      10.00000000      -0.05969521       0.36322559       0.03327305
C       -1.24980115       4.73157830      10.00000000      -0.56900266       0.34182353      -0.02047932
N       -1.23757445       6.11658101      10.00000000       0.18218623      -1.42468458      -0.28651659
N        0.11440283       8.45981585      10.00000000      -0.94244035       1.55985102      -0.10489620
C        1.30792642       9.16224746      10.00000000      -0.30135573      -1.64934268      -0.02303301
C        1.25803020      10.55216557      10.00000000       0.33060405       0.83459609      -0.01012846
C        0.03720704       2.62807678      10.00000000      -0.24921747      -0.42738737       0.01367559
C       -0.01311689       4.01783507      10.00000000      -0.18142056      -0.25378200       0.01819453
C        1.17960686       4.71982639      10.00000000      -0.38788291       1.10173797      -0.24245309
C        2.54438514       8.44872938      10.00000000      -0.93810896      -0.85444642       0.01181815
C        3.77341498       9.09884503      10.00000000      -0.77491021      -1.90464803       0.00331049
C        3.72607066      10.49363473      10.00000000      -0.11373714       0.15887598      -0.00177122
C        2.48403183       2.67372211      10.00000000       0.12641234      -0.14405153       0.01095859
C        2.41500233       4.10756281      10.00000000       0.72145846      -0.74277379       0.00827413
C        3.63739856       4.86418701      10.00000000      -0.72943097       1.67586697      -0.00026816
C        3.68067784       6.30038185      10.00000000       1.45827426      -0.58750329      -0.05631504
C        4.95710118       6.95791183      10.00000000      -1.90244954      -0.02316466       0.00468756
C        4.99842492       8.37232189      10.00000000       0.80898554       0.32613716      -0.00522177
C        6.25024099       9.03652569      10.00000000      -0.29683695      -0.28038570       0.00064543
C        6.19948042      10.45238139      10.00000000       0.20591870       0.16330321      -0.00074454
Pt       0.64722720       6.58994552      10.00000000       2.82082850       1.44275935      -0.56197370
H        0.27722720       6.58994552      12.20000000      -0.71741211       0.05700393       0.59981809
H        1.01722720       6.58994552      12.20000000       0.88601448       0.03214955       0.60780529
32
Lattice="9.84 0.0 0.0 4.92 8.521689973238876 0.0 0.0 0.0 20.0" Properties=species:S:1:pos:R:3:forces:R:3 energy=-253.89246252128072 pbc="T T F"
C       -4.90407279       2.72825394      10.00000000      -0.53532862      -0.43332506      -0.00154479
C       -4.95509823       4.14406101      10.00000000       0.72178674       0.32461753       0.06277987
C       -3.70324291       4.80768718      10.00000000      -0.09057805       0.38643797       0.00013819
C       -3.66224620       6.22199923      10.00000000       0.42712685      -0.22699639       0.04518600
C       -2.38584244       6.87990464      10.00000000      -0.26853519       0.45054987      -0.07316862
C       -2.34260280       8.31639578      10.00000000       0.08480724      -0.01010730      -0.02550268
C       -1.12011677       9.07272175      10.00000000       0.21446607       0.21430472       0.01182180
C       -1.18885840      10.50678026      10.00000000      -0.24034276      -0.17587908       0.00211615
C       -2.43055663       2.68615078      10.00000000       0.18614758      -0.26492686       0.02106143
C       -2.47816054       4.08081684      10.00000000      -0.07594576       0.36507353       0.09929960
C       -1.24980115       4.73157830      10.00000000      -0.59095793       0.31535927      -0.13358062
N       -1.23757445       6.11658101      10.00000000      -0.17838806      -1.63417602      -0.79100753
N        0.11440283       8.45981585      10.00000000      -0.79911699       1.64156295      -0.20398936
C        1.30792642       9.16224746      10.00000000      -0.48885129      -1.58426240      -0.01592765
C        1.25803020      10.55216557      10.00000000       0.33828200       0.80465878      -0.04346000
C        0.03720704       2.62807678      10.00000000      -0.22402214      -0.45360161       0.01946893
C       -0.01311689       4.01783507      10.00000000      -0.22619817      -0.15922563       0.00686124
C        1.17960686       4.71982639      10.00000000      -0.45812274       1.06503688      -0.29784701
C        2.54438514       8.44872938      10.00000000      -0.80021736      -0.87347359      -0.02231059
C        3.77341498       9.09884503      10.00000000      -0.74269051      -1.91234004       0.04760442
C        3.72607066      10.49363473      10.00000000      -0.14188123       0.19206298       0.01050910
C        2.48403183       2.67372211      10.00000000       0.09669754      -0.10716652       0.00087389
C        2.41500233       4.10756281      10.00000000       0.89214503      -0.70637381      -0.05369952
C        3.63739856       4.86418701      10.00000000      -0.81994197       1.48589631      -0.00809429
C        3.68067784       6.30038185      10.00000000       1.56238261      -0.49728319      -0.19765629
C        4.95710118       6.95791183      10.00000000      -1.88671920      -0.00782974       0.05866248
C        4.99842492       8.37232189      10.00000000       0.78223744       0.26490013      -0.02492720
C        6.25024099       9.03652569      10.00000000      -0.27407317      -0.23365484       0.00046662
C        6.19948042      10.45238139      10.00000000       0.21707068       0.16126422       0.00450464
Pt       0.64722720       6.58994552      10.00000000       2.90115804       1.36463386       2.37815328
H       -0.50277280       6.58994552      12.20000000       1.55210507       0.12804470      -0.29445859
H        1.79722720       6.58994552      12.20000000      -1.12637533       0.11879498      -0.59160417
32
Lattice="9.84 0.0 0.0 4.92 8.521689973238876 0.0 0.0 0.0 20.0" Properties=species:S:1:pos:R:3:forces:R:3 energy=-264.1937259695521 pbc="T T F"
C       -4.90407279       2.72825394      10.00000000      -0.65572393      -0.40937395       0.00220455
C       -4.95509823       4.14406101      10.00000000       0.89472809       0.31640648       0.00778679
C       -3.70324291       4.80768718      10.00000000      -0.18466570       0.47311374      -0.00180709
C       -3.66224620       6.22199923      10.00000000       0.30144717      -0.14461090       0.01189044
C       -2.38584244       6.87990464      10.00000000      -1.33518248       1.28201228       0.02777510
C       -2.34260280       8.31639578      10.00000000      -0.40056487       0.26954741      -0.01152984
C       -1.12011677       9.07272175      10.00000000      -1.51001400       0.83446238       0.01681248
C       -1.18885840      10.50678026      10.00000000      -0.46536981      -0.12713757       0.00053812
C       -2.43055663       2.68615078      10.00000000      -0.09114576      -0.13730958       0.00268625
C       -2.47816054       4.08081684      10.00000000      -0.04470929       0.10908370       0.03197462
C       -1.24980115       4.73157830      10.00000000      -0.54305411      -0.56679828       0.01471092
C       -1.23757445       6.11658101      10.00000000       2.37526726      -0.31180331      -0.35848358
C        0.11440283       8.45981585      10.00000000      -0.52985816      -1.30545177      -0.25241109
C        1.30792642       9.16224746      10.00000000       0.69029228      -0.86586306       0.00384323
C        1.25803020      10.55216557      10.00000000       0.69311423       1.08270910      -0.00883435
C        0.03720704       2.62807678      10.00000000      -0.09009305      -0.56441581       0.04059963
C       -0.01311689       4.01783507      10.00000000       0.09904984      -0.68545466       0.00996866
C        1.17960686       4.71982639      10.00000000       0.40780683       0.12654665      -0.32859690
C        2.54438514       8.44872938      10.00000000      -0.27136822      -0.92722576       0.00096415
C        3.77341498       9.09884503      10.00000000      -0.66583192      -1.72699085       0.00211974
C        3.72607066      10.49363473      10.00000000      -0.38002820       0.39831773       0.00446398
C        2.48403183       2.67372211      10.00000000       0.29879061       0.03246872       0.00895503
C        2.41500233       4.10756281      10.00000000       0.42969795      -1.04073070       0.01110831
C        3.63739856       4.86418701      10.00000000      -0.84717261       1.64708440      -0.01190214
C        3.68067784       6.30038185      10.00000000       1.58363709      -0.53949528      -0.01357428
C        4.95710118       6.95791183      10.00000000      -1.95062156      -0.26896364      -0.00140091
C        4.99842492       8.37232189      10.00000000       0.76119624      -0.19402642      -0.00492649
C        6.25024099       9.03652569      10.00000000      -0.32587642      -0.06399183       0.00014608
C        6.19948042      10.45238139      10.00000000       0.46656389       0.28441218      -0.00039525
Pt       0.64722720       6.58994552      10.00000000       1.10108314       2.97692312      -0.47690791
H        0.27722720       6.58994552      12.20000000      -0.71646490       0.05009889       0.59384963
H        1.01722720       6.58994552      12.20000000       0.91113431      -0.00163931       0.67315734
33
Lattice="9.84 0.0 0.0 4.92 8.521689973238876 0.0 0.0 0.0 20.0" Properties=species:S:1:pos:R:3:forces:R:3 energy=-264.17886736045466 pbc="T T F"
C       -4.90407279       2.72825394      10.00000000       0.04770807      -0.04306854      -0.00295751
C       -4.95509823       4.14406101      10.00000000      -0.03468446       0.02114187       0.00494338
C       -3.70324291       4.80768718      10.00000000       0.04692873      -0.03540948      -0.00363904
C       -3.66224620       6.22199923      10.00000000      -0.08797074       0.07032115       0.03637733
C       -2.38584244       6.87990464      10.00000000       0.12974193      -0.13998510      -0.07322701
C       -2.34260280       8.31639578      10.00000000      -0.08012976       0.04837971       0.01545584
C       -1.12011677       9.07272175      10.00000000       0.19157054      -0.04749121      -0.06189353
C       -1.18885840      10.50678026      10.00000000      -0.06931246       0.04622127       0.03105198
C       -2.43055663       2.68615078      10.00000000      -0.01164934       0.01452684      -0.00162497
C       -2.47816054       4.08081684      10.00000000      -0.05671171      -0.00017356       0.00127150
C       -1.24980115       4.73157830      10.00000000       0.07821219       0.03210215      -0.00674355
N       -1.23757445       6.11658101      10.00000000      -0.80314465      -0.10269985      -0.37431652
N        0.11440283       8.45981585      10.00000000      -0.27218940       0.60678417      -0.28107629
C        1.30792642       9.16224746      10.00000000       0.00464063      -0.04679358       0.00530028
C        1.25803020      10.55216557      10.00000000      -0.05314777       0.02145821       0.00053046
C        0.03720704       2.62807678      10.00000000       0.04934652      -0.03096601       0.00056237
C       -0.01311689       4.01783507      10.00000000      -0.03335867       0.04353838       0.00526231
N        1.17960686       4.71982639      10.00000000       0.32551097      -0.57867784      -0.28122685
N        2.53175081       7.06378150      10.00000000       0.82987031       0.08523934      -0.37467505
C        2.54438514       8.44872938      10.00000000      -0.06602450      -0.04034419      -0.00676417
C        3.77341498       9.09884503      10.00000000       0.04504631       0.01144582       0.00129821
C        3.72607066      10.49363473      10.00000000       0.00648682      -0.01786586      -0.00160471
C        2.48403183       2.67372211      10.00000000       0.08022296      -0.04763571       0.03105579
C        2.41500233       4.10756281      10.00000000      -0.20443512       0.05777025      -0.06184378
C        3.63739856       4.86418701      10.00000000       0.08201058      -0.05920025       0.01548644
C        3.68067784       6.30038185      10.00000000      -0.15205583       0.15383763      -0.07322107
C        4.95710118       6.95791183      10.00000000       0.09425026      -0.06085640       0.03640237
C        4.99842492       8.37232189      10.00000000      -0.04393348       0.03463681      -0.00360683
C        6.25024099       9.03652569      10.00000000       0.02666231      -0.02711164       0.00491527
C        6.19948042      10.45238139      10.00000000      -0.06127059       0.03133844      -0.00293154
Pt       0.64722720       6.58994552      10.00000000      -0.00251568      -0.00046860      -3.23122888
H        0.27722720       6.58994552      11.80000000      -1.34568052       0.03279850       2.31668656
H        1.01722720       6.58994552      11.80000000       1.34564130      -0.03295278       2.31657336
32
Lattice="9.84 0.0 0.0 4.92 8.521689973238876 0.0 0.0 0.0 20.0" Properties=species:S:1:pos:R:3:forces:R:3 energy=-261.9689702949988 pbc="T T F"
C       -4.90407279       2.72825394      10.00000000      -0.62823806      -0.42308730      -0.00009895
C       -4.95509823       4.14406101      10.00000000       0.80628064       0.37446732       0.00051885
C       -3.70324291       4.80768718      10.00000000      -0.16892686       0.42996120      -0.00003078
C       -3.66224620       6.22199923      10.00000000       0.26895089      -0.09015325       0.00115408
C       -2.38584244       6.87990464      10.00000000      -1.09551816       1.32166442       0.00028340
C       -2.34260280       8.31639578      10.00000000      -0.26239105       0.16157660       0.00001581
C       -1.12011677       9.07272175      10.00000000      -0.04005275       0.49968054      -0.00091384
C       -1.18885840      10.50678026      10.00000000      -0.20118426      -0.19515069       0.00060562
C       -2.43055663       2.68615078      10.00000000      -0.01824858      -0.21991588       0.00056538
C       -2.47816054       4.08081684      10.00000000      -0.05768731       0.06377989       0.00319843
C       -1.24980115       4.73157830      10.00000000      -0.40683744      -0.45792084      -0.00160901
C       -1.23757445       6.11658101      10.00000000       2.33572447      -0.69082642      -0.01870198
N        0.11440283       8.45981585      10.00000000      -0.70641866       0.95809407      -0.00799923
C        1.30792642       9.16224746      10.00000000      -0.55413580      -1.39649246      -0.00108635
C        1.25803020      10.55216557      10.00000000       0.36648503       0.85123462      -0.00032180
C        0.03720704       2.62807678      10.00000000      -0.09593093      -0.47083082       0.00259442
C       -0.01311689       4.01783507      10.00000000       0.06266141      -0.73082711       0.00055033
C        1.17960686       4.71982639      10.00000000      -0.27580527       0.90698141      -0.01907319
C        2.54438514       8.44872938      10.00000000      -0.59211621      -1.24643945       0.00317757
C        3.77341498       9.09884503      10.00000000      -0.73046961      -1.65099859      -0.00013543
C        3.72607066      10.49363473      10.00000000      -0.15996006       0.22138869       0.00037892
C        2.48403183       2.67372211      10.00000000       0.15121000      -0.07369967       0.00194535
C        2.41500233       4.10756281      10.00000000       0.57618754      -0.79568232       0.00011960
C        3.63739856       4.86418701      10.00000000      -0.77366959       1.68957824      -0.00153708
C        3.68067784       6.30038185      10.00000000       1.64609025      -0.45400483       0.00213887
C        4.95710118       6.95791183      10.00000000      -1.97711547      -0.26658083      -0.00001623
C        4.99842492       8.37232189      10.00000000       0.76584580       0.08202280      -0.00064726
C        6.25024099       9.03652569      10.00000000      -0.19005147      -0.07764546      -0.00009178
C        6.19948042      10.45238139      10.00000000       0.28671371       0.21407307       0.00002751
Pt       0.64722720       6.58994552      10.00000000       1.66481879       1.46486653      -0.06647230
H        0.27722720       6.58994552      13.20000000      -0.49573901       0.00272784       0.05055700
H        1.01722720       6.58994552      13.20000000       0.50521107       0.00127845       0.05479477
31
Lattice="9.84 0.0 0.0 4.92 8.521689973238876 0.0 0.0 0.0 20.0" Properties=species:S:1:pos:R:3:forces:R:3 energy=-267.11469178693324 pbc="T T F"
C       -4.90407279       2.72825394      10.00000000      -0.37051912      -0.20482511       0.00000000
C       -4.95509823       4.14406101      10.00000000       0.04488438       0.14201465       0.00000000
C       -3.70324291       4.80768718      10.00000000       0.00395958       0.30458081       0.00000000
C       -3.66224620       6.22199923      10.00000000      -0.07117839       0.20698421       0.00000000
C       -2.38584244       6.87990464      10.00000000      -1.27541204       0.90977828       0.00000000
C       -2.34260280       8.31639578      10.00000000      -0.51796360       0.32261624       0.00000000
C       -1.12011677       9.07272175      10.00000000      -1.37417403       0.86961777       0.00000000
C       -1.18885840      10.50678026      10.00000000      -0.35181666      -0.12163084       0.00000000
C       -2.43055663       2.68615078      10.00000000      -0.23225558       0.14713317       0.00000000
C       -2.47816054       4.08081684      10.00000000      -0.25628792      -0.29229484       0.00000000
C       -1.24980115       4.73157830      10.00000000      -0.89702694      -0.23720916       0.00000000
C       -1.23757445       6.11658101      10.00000000       1.57594794      -0.16233552       0.00000000
C        0.11440283       8.45981585      10.00000000       0.47096381      -0.72430639       0.00000000
C        1.30792642       9.16224746      10.00000000      -0.42893263       0.47727769       0.00000000
C        1.25803020      10.55216557      10.00000000       0.33229617       0.33961541       0.00000000
C        0.03720704       2.62807678      10.00000000      -0.18923493      -0.35649571       0.00000000
C       -0.01311689       4.01783507      10.00000000       0.22241162      -0.96973590       0.00000000
C        1.17960686       4.71982639      10.00000000      -0.57237018       0.57736884       0.00000000
N        2.53175081       7.06378150      10.00000000       1.18843086       1.05734248       0.00000000
C        2.54438514       8.44872938      10.00000000       1.28791912      -1.11879393       0.00000000
C        3.77341498       9.09884503      10.00000000       0.23956624       0.01761313       0.00000000
C        3.72607066      10.49363473      10.00000000      -0.03573168      -0.06264447       0.00000000
C        2.48403183       2.67372211      10.00000000       0.45958531       0.13685142       0.00000000
C        2.41500233       4.10756281      10.00000000       1.39722989      -0.83504060       0.00000000
C        3.63739856       4.86418701      10.00000000       0.08543334      -0.43838054       0.00000000
C        3.68067784       6.30038185      10.00000000       0.37513340       0.42844893       0.00000000
C        4.95710118       6.95791183      10.00000000      -0.03895262      -0.08217799       0.00000000
C        4.99842492       8.37232189      10.00000000      -0.04591302      -0.52465775       0.00000000
C        6.25024099       9.03652569      10.00000000       0.07937719       0.06984557       0.00000000
C        6.19948042      10.45238139      10.00000000       0.32953926       0.16507463       0.00000000
Pt       0.64722720       6.58994552      10.00000000      -1.42825598      -0.04147317       0.00000000
33
Lattice="9.84 0.0 0.0 4.92 8.521689973238876 0.0 0.0 0.0 20.0" Properties=species:S:1:pos:R:3:forces:R:3 energy=-273.57617701461197 pbc="T T F"
C       -4.90407279       2.72825394      10.00000000      -0.37072838      -0.20214557      -0.00043943
C       -4.95509823       4.14406101      10.00000000       0.04663220       0.14100927      -0.00053882
C       -3.70324291       4.80768718      10.00000000       0.00104315       0.30338024      -0.00124728
C       -3.66224620       6.22199923      10.00000000      -0.07340114       0.20702010       0.00330142
C       -2.38584244       6.87990464      10.00000000      -1.28828541       0.91171278       0.00837220
C       -2.34260280       8.31639578      10.00000000      -0.51576864       0.32518248      -0.00457905
C       -1.12011677       9.07272175      10.00000000      -1.38631543       0.87488384       0.00707880
C       -1.18885840      10.50678026      10.00000000      -0.35239576      -0.12192326       0.00109933
C       -2.43055663       2.68615078      10.00000000      -0.22799005       0.14363268       0.00026116
C       -2.47816054       4.08081684      10.00000000      -0.24982117      -0.29229415       0.01189470
C       -1.24980115       4.73157830      10.00000000      -0.88814703      -0.26744825       0.00510302
C       -1.23757445       6.11658101      10.00000000       1.54718029      -0.17237650      -0.13005445
C        0.11440283       8.45981585      10.00000000       0.47013691      -0.71238701      -0.09994126
C        1.30792642       9.16224746      10.00000000      -0.40607609       0.48023350       0.00230157
C        1.25803020      10.55216557      10.00000000       0.33435412       0.33252585       0.00088231
C        0.03720704       2.62807678      10.00000000      -0.19096483      -0.34700947       0.00969239
C       -0.01311689       4.01783507      10.00000000       0.20135296      -0.97527486       0.00335939
C        1.17960686       4.71982639      10.00000000      -0.58041675       0.55445209      -0.11294714
N        2.53175081       7.06378150      10.00000000       1.21822946       1.07944358      -0.08928215
C        2.54438514       8.44872938      10.00000000       1.28098480      -1.09713044      -0.00563115
C        3.77341498       9.09884503      10.00000000       0.23590999       0.01911625       0.00498822
C        3.72607066      10.49363473      10.00000000      -0.03829196      -0.06281996       0.00105164
C        2.48403183       2.67372211      10.00000000       0.45813681       0.13591376      -0.00000659
C        2.41500233       4.10756281      10.00000000       1.40205706      -0.84184463       0.00461726
C        3.63739856       4.86418701      10.00000000       0.08329731      -0.43859968      -0.00087446
C        3.68067784       6.30038185      10.00000000       0.38541539       0.42292695      -0.00337839
C        4.95710118       6.95791183      10.00000000      -0.03883106      -0.08156570       0.00180517
C        4.99842492       8.37232189      10.00000000      -0.04426847      -0.52257582      -0.00104387
C        6.25024099       9.03652569      10.00000000       0.08075890       0.07238943      -0.00083290
C        6.19948042      10.45238139      10.00000000       0.32954690       0.16135231      -0.00031759
Pt       0.64722720       6.58994552      10.00000000      -1.42167789      -0.02798145      -0.18013275
H        0.27722720       6.58994552      12.60000000      -0.52201768       0.01177407       0.26351479
H        1.01722720       6.58994552      12.60000000       0.53024857      -0.01144963       0.29436833
33
Lattice="9.84 0.0 0.0 4.92 8.521689973238876 0.0 0.0 0.0 20.0" Properties=species:S:1:pos:R:3:forces:R:3 energy=-272.52386363541547 pbc="T T F"
C       -4.90407279       2.72825394      10.00000000      -0.29938434      -0.19227954      -0.00066060
C       -4.95509823       4.14406101      10.00000000       0.02929413       0.17292811      -0.00309682
C       -3.70324291       4.80768718      10.00000000       0.00653459       0.26600006      -0.00320721
C       -3.66224620       6.22199923      10.00000000      -0.10087362       0.10196660       0.00494855
C       -2.38584244       6.87990464      10.00000000      -1.14151721       1.01957665       0.06664602
C       -2.34260280       8.31639578      10.00000000      -0.60151190       0.34131901      -0.01605805
C       -1.12011677       9.07272175      10.00000000      -1.38913951       0.77527115       0.07525174
C       -1.18885840      10.50678026      10.00000000      -0.32031897      -0.07186901      -0.00146494
C       -2.43055663       2.68615078      10.00000000      -0.23828226       0.14099239       0.00103630
C       -2.47816054       4.08081684      10.00000000      -0.22233699      -0.23022478       0.05612259
C       -1.24980115       4.73157830      10.00000000      -0.81828926      -0.21488211       0.04039463
C       -1.23757445       6.11658101      10.00000000       0.74474370      -0.55170832      -0.76826601
C        0.11440283       8.45981585      10.00000000       0.39742889      -0.16308033      -0.65142803
C        1.30792642       9.16224746      10.00000000      -0.29662512       0.40450282       0.02274651
C        1.25803020      10.55216557      10.00000000       0.31748397       0.35502557       0.02265905
C        0.03720704       2.62807678      10.00000000      -0.14535149      -0.31778759       0.02390464
C       -0.01311689       4.01783507      10.00000000       0.18204446      -0.91042390       0.03592186
C        1.17960686       4.71982639      10.00000000      -0.46058835      -0.12265284      -0.58197896
N        2.53175081       7.06378150      10.00000000       1.87695458       1.42980192      -0.78082515
C        2.54438514       8.44872938      10.00000000       1.21287620      -0.99091589      -0.02191489
C        3.77341498       9.09884503      10.00000000       0.23629646       0.01098391       0.05245838
C        3.72607066      10.49363473      10.00000000      -0.02958262      -0.07665750       0.00591452
C        2.48403183       2.67372211      10.00000000       0.40438756       0.07406121      -0.02257158
C        2.41500233       4.10756281      10.00000000       1.27983798      -0.68370663       0.05771800
C        3.63739856       4.86418701      10.00000000       0.21608701      -0.31504171       0.00134666
C        3.68067784       6.30038185      10.00000000       0.40148845       0.18628618       0.01912795
C        4.95710118       6.95791183      10.00000000      -0.04093760      -0.04490926       0.01944904
C        4.99842492       8.37232189      10.00000000      -0.05147844      -0.44537500      -0.00386365
C        6.25024099       9.03652569      10.00000000       0.10375896       0.02600337       0.00000476
C        6.19948042      10.45238139      10.00000000       0.26028640       0.15955681       0.00118910
Pt       0.64722720       6.58994552      10.00000000      -1.42548614      -0.05074081       0.79923641
H        0.22222720       6.58994552      11.80000000       0.48145513       0.02844969       0.71259361
H        1.07222720       6.58994552      11.80000000      -0.55998865      -0.11018194       0.83393579
33
Lattice="9.84 0.0 0.0 4.92 8.521689973238876 0.0 0.0 0.0 20.0" Properties=species:S:1:pos:R:3:forces:R:3 energy=-260.6329518377137 pbc="T T F"
C       -4.90407279       2.72825394      10.00000000       0.01181675      -0.11729848      -0.00791236
C       -4.95509823       4.14406101      10.00000000      -0.03641119       0.08362790       0.00131615
C       -3.70324291       4.80768718      10.00000000       0.01893791       0.00985595       0.00720082
C       -3.66224620       6.22199923      10.00000000       0.00151247       0.03150580       0.06071234
C       -2.38584244       6.87990464      10.00000000      -0.10483086      -0.01260410      -0.27591928
C       -2.34260280       8.31639578      10.00000000      -0.02476337      -0.01687374       0.05819359
C       -1.12011677       9.07272175      10.00000000       0.06531774      -0.06253592       0.01803966
C       -1.18885840      10.50678026      10.00000000      -0.00492399       0.06678439       0.02850154
C       -2.43055663       2.68615078      10.00000000       0.00619485      -0.01665294       0.00862300
C       -2.47816054       4.08081684      10.00000000      -0.06850631       0.05699201       0.02119981
C       -1.24980115       4.73157830      10.00000000      -0.00484898       0.09877079      -0.08562525
N       -1.23757445       6.11658101      10.00000000      -0.96239305      -0.40806394      -0.73941835
N        0.11440283       8.45981585      10.00000000       0.00410190       0.63419436      -0.50951210
C        1.30792642       9.16224746      10.00000000      -0.16813551      -0.13908116       0.03937129
C        1.25803020      10.55216557      10.00000000      -0.05793149       0.07332170       0.01514979
C        0.03720704       2.62807678      10.00000000       0.05405675      -0.08289786       0.01521453
C       -0.01311689       4.01783507      10.00000000       0.13960029       0.13594185       0.03933378
N        1.17960686       4.71982639      10.00000000       0.04906964      -0.60645863      -0.50951659
N        2.53175081       7.06378150      10.00000000       0.98830949       0.39114422      -0.73868942
C        2.54438514       8.44872938      10.00000000       0.01721288      -0.10691710      -0.08572064
C        3.77341498       9.09884503      10.00000000       0.05674477      -0.04589705       0.02128207
C        3.72607066      10.49363473      10.00000000      -0.01122888       0.01340333       0.00870475
C        2.48403183       2.67372211      10.00000000       0.01570919      -0.06826519       0.02843445
C        2.41500233       4.10756281      10.00000000      -0.07820092       0.07297952       0.01820326
C        3.63739856       4.86418701      10.00000000       0.02661089       0.00628512       0.05818301
C        3.68067784       6.30038185      10.00000000       0.08330972       0.02609463      -0.27574470
C        4.95710118       6.95791183      10.00000000       0.00459346      -0.02219429       0.06064778
C        4.99842492       8.37232189      10.00000000      -0.01593122      -0.01044609       0.00721378
C        6.25024099       9.03652569      10.00000000       0.02842892      -0.08970788       0.00135142
C        6.19948042      10.45238139      10.00000000      -0.02527434       0.10570637      -0.00796747
Pt       0.64722720       6.58994552      10.00000000      -0.00270893      -0.00038801       2.33809879
H       -0.50277280       6.58994552      11.80000000       0.84583568       0.07942710       0.18593088
H        1.79722720       6.58994552      11.80000000      -0.84531835      -0.07981572       0.18511539
32
Lattice="9.84 0.0 0.0 4.92 8.521689973238876 0.0 0.0 0.0 20.0" Properties=species:S:1:pos:R:3:forces:R:3 energy=-254.4827418288559 pbc="T T F"
C       -4.90407279       2.72825394      10.00000000      -0.48369000      -0.41947266      -0.00429230
C       -4.95509823       4.14406101      10.00000000       0.67557405       0.32374816       0.14096419
C       -3.70324291       4.80768718      10.00000000      -0.08293910       0.31258996      -0.01139227
C       -3.66224620       6.22199923      10.00000000       0.45260779      -0.17752836       0.08344924
C       -2.38584244       6.87990464      10.00000000      -0.51536167       0.49211116      -0.15396375
C       -2.34260280       8.31639578      10.00000000       0.09043678      -0.03840976      -0.04546526
C       -1.12011677       9.07272175      10.00000000       0.20674020       0.18451255       0.02777333
C       -1.18885840      10.50678026      10.00000000      -0.22527478      -0.16598359       0.00830245
C       -2.43055663       2.68615078      10.00000000       0.16256572      -0.23832387       0.03364952
C       -2.47816054       4.08081684      10.00000000      -0.07170252       0.35607757       0.16778409
C       -1.24980115       4.73157830      10.00000000      -0.63817826       0.10082418      -0.20664334
N       -1.23757445       6.11658101      10.00000000      -1.04387839      -1.79788494      -1.37309746
N        0.11440283       8.45981585      10.00000000      -0.77379305       1.93098424      -0.27431505
C        1.30792642       9.16224746      10.00000000      -0.49293860      -1.53626911      -0.04144472
C        1.25803020      10.55216557      10.00000000       0.31656610       0.75325826      -0.09943245
C        0.03720704       2.62807678      10.00000000      -0.20719635      -0.46994399       0.02045311
C       -0.01311689       4.01783507      10.00000000      -0.32864185      -0.07127695       0.01785049
C        1.17960686       4.71982639      10.00000000      -0.45844402       0.93074924      -0.35530635
C        2.54438514       8.44872938      10.00000000      -0.79216442      -0.83174792      -0.06415333
C        3.77341498       9.09884503      10.00000000      -0.69867983      -1.94604540       0.10834039
C        3.72607066      10.49363473      10.00000000      -0.15961579       0.19951021       0.02214307
C        2.48403183       2.67372211      10.00000000       0.07170039      -0.10222642      -0.01916737
C        2.41500233       4.10756281      10.00000000       1.00273955      -0.64064095      -0.10625730
C        3.63739856       4.86418701      10.00000000      -0.78638894       1.37086876       0.01347010
C        3.68067784       6.30038185      10.00000000       1.73565128      -0.39359121      -0.50398323
C        4.95710118       6.95791183      10.00000000      -1.84638584      -0.03821216       0.11052552
C        4.99842492       8.37232189      10.00000000       0.78132059       0.27750378      -0.03994031
C        6.25024099       9.03652569      10.00000000      -0.29295789      -0.22843522       0.00675267
C        6.19948042      10.45238139      10.00000000       0.21647568       0.15562426       0.00926837
Pt       0.64722720       6.58994552      10.00000000       3.28273205       1.28597683       4.60074301
H       -0.50277280       6.58994552      11.80000000       1.85179456       0.18306292      -0.86897019
H        1.79722720       6.58994552      11.80000000      -0.94344578       0.23950944      -1.18271753
32
Lattice="9.84 0.0 0.0 4.92 8.521689973238876 0.0 0.0 0.0 20.0" Properties=species:S:1:pos:R:3:forces:R:3 energy=-251.37915927863892 pbc="T T F"
C       -4.90407279       2.72825394      10.00000000      -0.30052038      -0.22178244      -0.00474364
C       -4.95509823       4.14406101      10.00000000       0.42779670      -0.07495732      -0.01656522
C       -3.70324291       4.80768718      10.00000000      -0.05538497       0.33334266       0.00105935
C       -3.66224620       6.22199923      10.00000000       0.44326613      -0.05014253       0.02323952
C       -2.38584244       6.87990464      10.00000000      -0.11558057       0.24970709      -0.04283999
C       -2.34260280       8.31639578      10.00000000       0.08646723       0.08785880       0.02375699
C       -1.12011677       9.07272175      10.00000000       0.09022414      -0.16433013      -0.02891480
C       -1.18885840      10.50678026      10.00000000      -0.06326283      -0.04731794       0.00087923
C       -2.43055663       2.68615078      10.00000000       0.14765361      -0.21808302       0.00676606
C       -2.47816054       4.08081684      10.00000000      -0.04709748       0.14475483       0.04316088
C       -1.24980115       4.73157830      10.00000000      -0.21530481       0.64332395      -0.04602031
N       -1.23757445       6.11658101      10.00000000      -0.31892923      -1.25943994      -0.78628625
N        0.11440283       8.45981585      10.00000000      -0.42958437       0.75995051      -0.22181548
C        1.30792642       9.16224746      10.00000000       0.19013807      -1.20995627       0.03347835
C        1.25803020      10.55216557      10.00000000       0.06370189       0.58644424       0.03305668
C        0.03720704       2.62807678      10.00000000      -0.04112455      -0.20436635       0.02155395
C       -0.01311689       4.01783507      10.00000000       0.75814397      -0.03429251       0.03512158
N        1.17960686       4.71982639      10.00000000       0.05471700      -0.36588510      -0.37607980
C        2.54438514       8.44872938      10.00000000      -1.69518234      -0.83833959      -0.20951748
C        3.77341498       9.09884503      10.00000000      -0.92422123      -1.69505860       0.02950720
C        3.72607066      10.49363473      10.00000000      -0.10615816       0.22706033      -0.00053861
C        2.48403183       2.67372211      10.00000000      -0.09964161      -0.08030995       0.04014531
C        2.41500233       4.10756281      10.00000000      -0.30601932      -0.45853782       0.01745940
C        3.63739856       4.86418701      10.00000000      -0.48518232       1.63085977      -0.08150137
C        3.68067784       6.30038185      10.00000000       1.41827682      -0.57187454       0.02881700
C        4.95710118       6.95791183      10.00000000      -1.54027628      -0.38141143       0.00037651
C        4.99842492       8.37232189      10.00000000       0.74911184       0.24713790      -0.01795433
C        6.25024099       9.03652569      10.00000000      -0.27288517      -0.31626337      -0.00668713
C        6.19948042      10.45238139      10.00000000       0.15211309       0.16835158      -0.00627290
Pt       0.64722720       6.58994552      10.00000000       2.15057259       2.93688862       1.84439942
H       -0.25277280       6.58994552      12.20000000       2.20214236       0.04427002       0.01476885
H        1.54722720       6.58994552      12.20000000      -1.91802069       0.13402376      -0.43088445
33
Lattice="9.84 0.0 0.0 4.92 8.521689973238876 0.0 0.0 0.0 20.0" Properties=species:S:1:pos:R:3:forces:R:3 energy=-267.97829515077314 pbc="T T F"
C       -4.90407279       2.72825394      10.00000000      -0.11160927      -0.13380663      -0.00414655
C       -4.95509823       4.14406101      10.00000000      -0.23676443      -0.08643302      -0.00114645
C       -3.70324291       4.80768718      10.00000000       0.10415878       0.17105101      -0.00296865
C       -3.66224620       6.22199923      10.00000000      -0.01338167       0.28966144       0.00835620
C       -2.38584244       6.87990464      10.00000000      -0.21067526      -0.46373696      -0.02002360
C       -2.34260280       8.31639578      10.00000000       0.03118439       0.07214975       0.01163045
C       -1.12011677       9.07272175      10.00000000       0.08972912       0.12320455      -0.01291838
C       -1.18885840      10.50678026      10.00000000       0.03657220      -0.00032991       0.01213669
C       -2.43055663       2.68615078      10.00000000      -0.01606959       0.02851528       0.00080571
C       -2.47816054       4.08081684      10.00000000      -0.23249229      -0.13970491       0.01059677
C       -1.24980115       4.73157830      10.00000000      -0.52732819       0.96581374       0.01074313
N       -1.23757445       6.11658101      10.00000000      -1.51312275      -0.63365092      -0.30369931
N        0.11440283       8.45981585      10.00000000       0.55770404       0.96291944      -0.28756124
C        1.30792642       9.16224746      10.00000000      -0.96391137       0.51686036       0.01917612
C        1.25803020      10.55216557      10.00000000      -0.21682235       0.07602409       0.02900796
C        0.03720704       2.62807678      10.00000000      -0.01001335      -0.09007927       0.01557862
C       -0.01311689       4.01783507      10.00000000       1.02213821      -0.04611548       0.01770559
N        1.17960686       4.71982639      10.00000000      -0.46449344      -0.27061877      -0.29977923
C        2.53175081       7.06378150      10.00000000      -1.18659949       0.20514300      -0.36131436
C        2.54438514       8.44872938      10.00000000       0.17867608       0.04934698       0.02146620
C        3.77341498       9.09884503      10.00000000       0.08589541       0.41948819       0.01841383
C        3.72607066      10.49363473      10.00000000       0.25372137      -0.08249072       0.00140690
C        2.48403183       2.67372211      10.00000000      -0.04408459       0.08212275       0.01417487
C        2.41500233       4.10756281      10.00000000       0.31838189      -0.24371809      -0.00021902
C        3.63739856       4.86418701      10.00000000       0.34141469      -0.36390563       0.00639715
C        3.68067784       6.30038185      10.00000000       0.91129931      -0.67650665       0.01003016
C        4.95710118       6.95791183      10.00000000       0.20034244      -0.19992574       0.00616607
C        4.99842492       8.37232189      10.00000000       0.03892037      -0.15871486      -0.00157757
C        6.25024099       9.03652569      10.00000000       0.03235999      -0.10288942      -0.00015661
C        6.19948042      10.45238139      10.00000000       0.12305040       0.10106877      -0.00443879
Pt       0.64722720       6.58994552      10.00000000       1.45292724      -0.37949385      -0.24258300
H        0.22222720       6.58994552      12.20000000       2.04348095       0.01306812       0.70732347
H        1.07222720       6.58994552      12.20000000      -2.06808369      -0.00337355       0.61795425
33
Lattice="9.84 0.0 0.0 4.92 8.521689973238876 0.0 0.0 0.0 20.0" Properties=species:S:1:pos:R:3:forces:R:3 energy=-267.4562863497955 pbc="T T F"
C       -4.90407279       2.72825394      10.00000000      -0.35726691      -0.32156566      -0.00323760
C       -4.95509823       4.14406101      10.00000000      -0.01488444       0.38257315      -0.00139761
C       -3.70324291       4.80768718      10.00000000      -0.03275699       0.22119083       0.00201568
C       -3.66224620       6.22199923      10.00000000      -0.18076667       0.10852049      -0.02791173
C       -2.38584244       6.87990464      10.00000000      -1.02668937       0.89956315       0.02095914
C       -2.34260280       8.31639578      10.00000000      -0.45278540      -0.01512847       0.00204075
C       -1.12011677       9.07272175      10.00000000      -0.02313076       0.44538556       0.03523780
C       -1.18885840      10.50678026      10.00000000      -0.02066698       0.02538669       0.00618588
C       -2.43055663       2.68615078      10.00000000      -0.26233778       0.05955622       0.00809936
C       -2.47816054       4.08081684      10.00000000      -0.18039187      -0.20922654       0.07719042
C       -1.24980115       4.73157830      10.00000000      -0.99518882       0.24567866      -0.00542114
C       -1.23757445       6.11658101      10.00000000       0.55569630      -1.12590943      -0.79456932
N        0.11440283       8.45981585      10.00000000       0.51972341       1.82823590      -0.56143302
C        1.30792642       9.16224746      10.00000000      -2.16276887       0.05588490      -0.00192658
C        1.25803020      10.55216557      10.00000000       0.09777243       0.27127939       0.01723586
C        0.03720704       2.62807678      10.00000000      -0.08746345      -0.29983520       0.09660695
C       -0.01311689       4.01783507      10.00000000       0.72337322      -0.72459947       0.04358180
C        1.17960686       4.71982639      10.00000000      -1.24500011       0.31123537      -0.64074427
N        2.53175081       7.06378150      10.00000000       1.61676535       1.55325371      -0.81941699
C        2.54438514       8.44872938      10.00000000       1.08758061      -1.85171899      -0.08788505
C        3.77341498       9.09884503      10.00000000       0.16429816       0.23328026       0.03044416
C        3.72607066      10.49363473      10.00000000       0.16828044      -0.19614671       0.00953581
C        2.48403183       2.67372211      10.00000000       0.18991409      -0.10374507      -0.02359491
C        2.41500233       4.10756281      10.00000000       1.13824606      -0.39156361       0.03319339
C        3.63739856       4.86418701      10.00000000       0.25887818      -0.33576031      -0.00214646
C        3.68067784       6.30038185      10.00000000       0.44337201       0.05800512      -0.02089994
C        4.95710118       6.95791183      10.00000000       0.01472621       0.00251168       0.01072509
C        4.99842492       8.37232189      10.00000000      -0.06139841      -0.46962131       0.00224638
C        6.25024099       9.03652569      10.00000000       0.31649504       0.16214132      -0.00379133
C        6.19948042      10.45238139      10.00000000       0.20142052       0.10317702      -0.00288386
Pt       0.64722720       6.58994552      10.00000000      -0.36681323      -0.82643272       3.62587375
H       -0.25277280       6.58994552      12.20000000       2.39451769       0.02529669      -0.69416870
H        1.54722720       6.58994552      12.20000000      -2.41239289      -0.11335012      -0.35829063
33
Lattice="9.84 0.0 0.0 4.92 8.521689973238876 0.0 0.0 0.0 20.0" Properties=species:S:1:pos:R:3:forces:R:3 energy=-264.5387578089527 pbc="T T F"
C       -4.90407279       2.72825394      10.00000000      -0.07859354      -0.14761484       0.00004368
C       -4.95509823       4.14406101      10.00000000      -0.21914394      -0.03744167      -0.00076650
C       -3.70324291       4.80768718      10.00000000       0.07659357       0.10139732       0.01687634
C       -3.66224620       6.22199923      10.00000000       0.12760511       0.17352425      -0.00254061
C       -2.38584244       6.87990464      10.00000000      -0.55810440      -0.03607999      -0.15333328
C       -2.34260280       8.31639578      10.00000000       0.08786248      -0.07466648       0.00851354
C       -1.12011677       9.07272175      10.00000000      -0.06656347       0.00867946       0.06652054
C       -1.18885840      10.50678026      10.00000000       0.12164764       0.03166412      -0.00444789
C       -2.43055663       2.68615078      10.00000000       0.03294545      -0.00573966       0.00651130
C       -2.47816054       4.08081684      10.00000000      -0.14546301      -0.03558753       0.02901938
C       -1.24980115       4.73157830      10.00000000      -0.33473148       0.50776765      -0.17148748
N       -1.23757445       6.11658101      10.00000000      -1.58267105      -0.85482025      -0.72318420
N        0.11440283       8.45981585      10.00000000       0.58910502       0.98800764      -0.71867031
C        1.30792642       9.16224746      10.00000000      -0.56731991       0.40662908       0.00903752
C        1.25803020      10.55216557      10.00000000      -0.22774940       0.04360200       0.10124991
C        0.03720704       2.62807678      10.00000000       0.00114047      -0.08529237       0.06065695
C       -0.01311689       4.01783507      10.00000000       0.59143927       0.10764248       0.05071703
N        1.17960686       4.71982639      10.00000000      -0.43581197      -0.36067248      -0.77213063
C        2.53175081       7.06378150      10.00000000      -1.05447136       0.21515251       0.04301316
C        2.54438514       8.44872938      10.00000000      -0.14951190       0.66969231      -0.09427457
C        3.77341498       9.09884503      10.00000000      -0.02786521       0.29132201       0.01222838
C        3.72607066      10.49363473      10.00000000       0.15316263       0.00105492       0.01128913
C        2.48403183       2.67372211      10.00000000      -0.12535710       0.03716028       0.03124549
C        2.41500233       4.10756281      10.00000000       0.52173638      -0.09352067       0.11489282
C        3.63739856       4.86418701      10.00000000       0.32554747      -0.27924865      -0.06321643
C        3.68067784       6.30038185      10.00000000       1.24816668      -1.24502358      -0.01537783
C        4.95710118       6.95791183      10.00000000       0.09470289      -0.12172938      -0.06672024
C        4.99842492       8.37232189      10.00000000       0.06701678      -0.11963390       0.01421800
C        6.25024099       9.03652569      10.00000000      -0.03031998      -0.10336696      -0.00807767
C        6.19948042      10.45238139      10.00000000       0.13113708       0.10687711      -0.00782597
Pt       0.64722720       6.58994552      10.00000000       1.24750793      -0.30330321       3.92949323
H       -0.50277280       6.58994552      11.80000000       0.63923333       0.13820124      -0.36798909
H        1.79722720       6.58994552      11.80000000      -0.44396822       0.07782956      -1.35641150
33
Lattice="9.84 0.0 0.0 4.92 8.521689973238876 0.0 0.0 0.0 20.0" Properties=species:S:1:pos:R:3:forces:R:3 energy=-271.487483478144 pbc="T T F"
C       -4.90407279       2.72825394      10.00000000      -0.40594912      -0.16795985       0.00286716
C       -4.95509823       4.14406101      10.00000000       0.18564602      -0.09080408       0.01163378
C       -3.70324291       4.80768718      10.00000000      -0.07678832       0.40382390       0.01300869
C       -3.66224620       6.22199923      10.00000000      -0.06115756       0.31048247      -0.05935661
C       -2.38584244       6.87990464      10.00000000      -1.46209661       1.04179695      -0.00377177
C       -2.34260280       8.31639578      10.00000000      -0.39609853       0.26837023      -0.04029923
C       -1.12011677       9.07272175      10.00000000      -1.48295593       0.77937293       0.05008810
C       -1.18885840      10.50678026      10.00000000      -0.38823291      -0.11494498      -0.01273306
C       -2.43055663       2.68615078      10.00000000       0.05733424      -0.01950019      -0.00484432
C       -2.47816054       4.08081684      10.00000000      -0.17542391      -0.17565281      -0.01041451
C       -1.24980115       4.73157830      10.00000000      -0.37961699      -1.14563659      -0.01928685
C       -1.23757445       6.11658101      10.00000000       0.28346545       0.21550004      -0.30189492
C        0.11440283       8.45981585      10.00000000       0.08374818      -0.91221418      -0.19530653
C        1.30792642       9.16224746      10.00000000       0.66782161       1.02199965       0.01620661
C        1.25803020      10.55216557      10.00000000       0.15882220       0.24468803       0.00865327
C        0.03720704       2.62807678      10.00000000      -0.16255236      -0.25379429       0.00858881
C       -0.01311689       4.01783507      10.00000000      -0.69900672      -1.02636454       0.01616549
C        1.17960686       4.71982639      10.00000000      -0.02518112       0.93517475      -0.19503586
C        2.53175081       7.06378150      10.00000000      -0.25917958      -0.23065370      -0.30222395
C        2.54438514       8.44872938      10.00000000       0.39368485       1.13846754      -0.01935640
C        3.77341498       9.09884503      10.00000000       0.16274999       0.18839878      -0.01030466
C        3.72607066      10.49363473      10.00000000      -0.06125839       0.01515294      -0.00486603
C        2.48403183       2.67372211      10.00000000       0.39978374       0.11327947      -0.01273986
C        2.41500233       4.10756281      10.00000000       1.46650195      -0.76554164       0.05011292
C        3.63739856       4.86418701      10.00000000       0.39859037      -0.27926009      -0.04042485
C        3.68067784       6.30038185      10.00000000       1.43944019      -1.02749131      -0.00360540
C        4.95710118       6.95791183      10.00000000       0.06752165      -0.30157308      -0.05918768
C        4.99842492       8.37232189      10.00000000       0.08015240      -0.40493273       0.01297847
C        6.25024099       9.03652569      10.00000000      -0.19404782       0.08515613       0.01167283
C        6.19948042      10.45238139      10.00000000       0.39332175       0.15558984       0.00288729
Pt       0.64722720       6.58994552      10.00000000      -0.00232502      -0.00105364       2.77292826
H       -0.50277280       6.58994552      12.20000000       1.17846908      -0.11591660      -0.86042720
H        1.79722720       6.58994552      12.20000000      -1.17804510       0.11580542      -0.86016425
33
Lattice="9.84 0.0 0.0 4.92 8.521689973238876 0.0 0.0 0.0 20.0" Properties=species:S:1:pos:R:3:forces:R:3 energy=-264.1619880817849 pbc="T T F"
C       -4.90407279       2.72825394      10.00000000       0.05230777      -0.04684537      -0.00351377
C       -4.95509823       4.14406101      10.00000000      -0.03830254       0.02382530       0.00526451
C       -3.70324291       4.80768718      10.00000000       0.05165551      -0.03686303      -0.00441798
C       -3.66224620       6.22199923      10.00000000      -0.09597000       0.07030988       0.04154788
C       -2.38584244       6.87990464      10.00000000       0.14307478      -0.14421261      -0.08143475
C       -2.34260280       8.31639578      10.00000000      -0.08670029       0.04970129       0.01933619
C       -1.12011677       9.07272175      10.00000000       0.20575939      -0.05344225      -0.06556059
C       -1.18885840      10.50678026      10.00000000      -0.07369071       0.05088695       0.03366022
C       -2.43055663       2.68615078      10.00000000      -0.00828473       0.01258819      -0.00134109
C       -2.47816054       4.08081684      10.00000000      -0.06329811       0.00253929       0.00174300
C       -1.24980115       4.73157830      10.00000000       0.08742873       0.03251397      -0.00572269
N       -1.23757445       6.11658101      10.00000000      -0.88954998      -0.12455357      -0.44686575
N        0.11440283       8.45981585      10.00000000      -0.28720280       0.64598274      -0.30873086
C        1.30792642       9.16224746      10.00000000       0.00667287      -0.05644335       0.01025000
C        1.25803020      10.55216557      10.00000000      -0.05756803       0.02635932       0.00045054
C        0.03720704       2.62807678      10.00000000       0.05378311      -0.03585443       0.00050758
C       -0.01311689       4.01783507      10.00000000      -0.03537216       0.05316797       0.01025626
N        1.17960686       4.71982639      10.00000000       0.34052309      -0.61792693      -0.30892606
N        2.53175081       7.06378150      10.00000000       0.91642124       0.10729822      -0.44690126
C        2.54438514       8.44872938      10.00000000      -0.07523889      -0.04080050      -0.00574173
C        3.77341498       9.09884503      10.00000000       0.05163970       0.00871223       0.00181744
C        3.72607066      10.49363473      10.00000000       0.00311350      -0.01593208      -0.00132162
C        2.48403183       2.67372211      10.00000000       0.08459138      -0.05228110       0.03366407
C        2.41500233       4.10756281      10.00000000      -0.21860124       0.06367284      -0.06553583
C        3.63739856       4.86418701      10.00000000       0.08857042      -0.06051397       0.01939380
C        3.68067784       6.30038185      10.00000000      -0.16534342       0.15806991      -0.08145849
C        4.95710118       6.95791183      10.00000000       0.10223902      -0.06084418       0.04157242
C        4.99842492       8.37232189      10.00000000      -0.04866910       0.03609737      -0.00438794
C        6.25024099       9.03652569      10.00000000       0.03029327      -0.02981288       0.00523801
C        6.19948042      10.45238139      10.00000000      -0.06587359       0.03513031      -0.00351296
Pt       0.64722720       6.58994552      10.00000000      -0.00254002      -0.00052605      -2.58033391
H        0.22222720       6.58994552      11.80000000       1.32117329       0.03582946       2.08744129
H        1.07222720       6.58994552      11.80000000      -1.32114118      -0.03599442       2.08735689
30
Lattice="9.84 0.0 0.0 4.92 8.521689973238876 0.0 0.0 0.0 20.0" Properties=species:S:1:pos:R:3:forces:R:3 energy=-251.7205381393476 pbc="T T F"
C       -4.87426994       2.71995808      10.03886131      -2.58278221       0.02424131      -1.52020489
C       -4.86371644       4.13001181       9.98595178      -2.23918908       1.87246875       0.84321996
C       -3.60849014       4.85373326       9.97183154      -3.90164060      -4.47854429       0.11783048
C       -3.62969260       6.19419417       9.97205621      -0.39650012       1.07011743      -0.42129689
C       -2.37132470       6.76510783       9.89650493      -8.61628185      10.49170351       0.71651576
C       -2.37634005       8.25562591      10.01885484      -0.29657662       1.90634182      -0.70488258
C       -1.17459821       8.98798353      10.08793893       1.76120709       2.17039649      -2.14117486
C       -1.20240498      10.51083195       9.91451511      -1.84804096      -0.86277773       2.78792686
C       -2.46321959       2.69280614       9.93094039       1.87967659      -2.00869997      -0.15663037
C       -2.45561866       4.04477852       9.98249838       0.75966591       4.52865254      -0.22645647
C       -1.28590355       4.84271499       9.99919017       2.01252207      -8.83889541      -0.10511624
C       -1.30103711       6.16593370       9.92674938      11.40220268      -4.01870882       0.52464435
C        0.12693465       8.34223564       9.92030884      -0.62068666       3.88864825       1.76499064
C        1.31973809       9.20655545      10.01028210      -0.58954755      -6.27637408      -1.48895743
C        1.25109130      10.53409935       9.91128868       0.65583696       2.77567336       1.00377159
C       -0.00598361       2.60043845      10.06342733      -0.00158785      -3.35135124      -0.71286510
C        0.00750021       3.91205266      10.01944504      -2.18062872       7.18138550       0.15191580
C        1.15650192       4.67921107      10.03670058       0.04137676       0.77874460       0.10424022
C        2.60624511       8.50460619       9.94964695      -4.40898555      -2.62281688       0.48086400
C        3.75486224       9.11872084      10.05853271       3.73578196      -3.51735445      -1.04082679
C        3.69732021      10.48249519       9.93361990      -0.76642893       1.63665394       1.02962313
C        2.41225943       2.72247366      10.08137440       3.56630935      -1.83416191      -1.39368375
C        2.41068172       4.16777478      10.02169816      -0.22965034      -3.72634021       0.84092087
C        3.59869137       4.88587075      10.09228219       3.44601976       3.41045201      -2.07178444
C        3.67852828       6.39426047       9.84281529       0.84528635      -3.68240178       1.85319188
C        5.00641533       6.96313465       9.98205956      -2.86676863      -5.07365824      -0.72153983
C        5.00393057       8.25306776       9.98681969       1.79232362      11.03652628       0.40206296
C        6.27166774       9.12519933       9.96890379      -1.75111659     -10.05220143       0.47557303
C        6.15097080      10.42227597      10.05492413       1.44673988       5.73122834       0.35024112
Pt       0.66695227       6.55815991      10.03079605      -0.05253013       1.84905787      -0.74233453
32
Lattice="9.84 0.0 0.0 4.92 8.521689973238876 0.0 0.0 0.0 20.0" Properties=species:S:1:pos:R:3:forces:R:3 energy=-261.3591428453099 pbc="T T F"
C       -4.90407279       2.72825394      10.00000000      -0.62801609      -0.42647043      -0.00129728
C       -4.95509823       4.14406101      10.00000000       0.80730946       0.37772514       0.01181969
C       -3.70324291       4.80768718      10.00000000      -0.17076517       0.41993449      -0.00207629
C       -3.66224620       6.22199923      10.00000000       0.26627767      -0.08898896       0.00881377
C       -2.38584244       6.87990464      10.00000000      -1.12409743       1.30321231       0.01928440
C       -2.34260280       8.31639578      10.00000000      -0.26647518       0.16126209      -0.00310321
C       -1.12011677       9.07272175      10.00000000      -0.03126669       0.48907226      -0.00341020
C       -1.18885840      10.50678026      10.00000000      -0.19467173      -0.18369774       0.00504527
C       -2.43055663       2.68615078      10.00000000      -0.02010978      -0.22116894       0.00484267
C       -2.47816054       4.08081684      10.00000000      -0.04884991       0.05501714       0.03696664
C       -1.24980115       4.73157830      10.00000000      -0.42079216      -0.51562615       0.00499691
C       -1.23757445       6.11658101      10.00000000       2.10617794      -0.77287723      -0.35569047
N        0.11440283       8.45981585      10.00000000      -0.70817388       1.12603499      -0.20309245
C        1.30792642       9.16224746      10.00000000      -0.59902032      -1.38011384      -0.01337835
C        1.25803020      10.55216557      10.00000000       0.36582172       0.83547644      -0.00727625
C        0.03720704       2.62807678      10.00000000      -0.09240255      -0.47515596       0.04125067
C       -0.01311689       4.01783507      10.00000000       0.01805328      -0.73556282       0.01906627
C        1.17960686       4.71982639      10.00000000      -0.29515910       0.78309403      -0.34031348
C        2.54438514       8.44872938      10.00000000      -0.59773929      -1.22365868       0.01654733
C        3.77341498       9.09884503      10.00000000      -0.72880088      -1.66675906       0.00313156
C        3.72607066      10.49363473      10.00000000      -0.16918300       0.23455021       0.00193153
C        2.48403183       2.67372211      10.00000000       0.14113875      -0.07983134       0.01691792
C        2.41500233       4.10756281      10.00000000       0.62631914      -0.78801021       0.00935783
C        3.63739856       4.86418701      10.00000000      -0.80015592       1.63616437      -0.00991006
C        3.68067784       6.30038185      10.00000000       1.63737122      -0.45865479      -0.02425990
C        4.95710118       6.95791183      10.00000000      -1.98599371      -0.25571496      -0.00066153
C        4.99842492       8.37232189      10.00000000       0.76249469       0.08262347      -0.00409339
C        6.25024099       9.03652569      10.00000000      -0.18434910      -0.06562410      -0.00135878
C        6.19948042      10.45238139      10.00000000       0.28765968       0.20595175      -0.00163876
Pt       0.64722720       6.58994552      10.00000000       1.84768080       1.55628339      -0.43284938
H        0.22222720       6.58994552      12.20000000       2.11546460       0.03560959       0.56398691
H        1.07222720       6.58994552      12.20000000      -1.90947846       0.03854854       0.64079377
33
Lattice="9.84 0.0 0.0 4.92 8.521689973238876 0.0 0.0 0.0 20.0" Properties=species:S:1:pos:R:3:forces:R:3 energy=-276.1022232801363 pbc="T T F"
C       -4.90407279       2.72825394      10.00000000      -0.43700572      -0.20422116       0.00000123
C       -4.95509823       4.14406101      10.00000000       0.14876252      -0.08754850      -0.00008275
C       -3.70324291       4.80768718      10.00000000      -0.05345067       0.46505851       0.00016181
C       -3.66224620       6.22199923      10.00000000      -0.09040369       0.41597649      -0.00000156
C       -2.38584244       6.87990464      10.00000000      -1.39730519       0.78246983       0.00039360
C       -2.34260280       8.31639578      10.00000000      -0.41713448       0.25449378      -0.00011432
C       -1.12011677       9.07272175      10.00000000      -1.40045093       0.80871939       0.00024093
C       -1.18885840      10.50678026      10.00000000      -0.36516008      -0.12196309       0.00007309
C       -2.43055663       2.68615078      10.00000000       0.01729711      -0.00384709       0.00006545
C       -2.47816054       4.08081684      10.00000000      -0.20949261      -0.29640485       0.00038416
C       -1.24980115       4.73157830      10.00000000      -0.66233486      -0.77603955       0.00014202
C       -1.23757445       6.11658101      10.00000000       0.81813511       0.34536514      -0.00174391
C        0.11440283       8.45981585      10.00000000       0.13526878      -0.91100150      -0.00087138
C        1.30792642       9.16224746      10.00000000       0.34746561       1.00619916       0.00019508
C        1.25803020      10.55216557      10.00000000       0.12509570       0.30020198       0.00008178
C        0.03720704       2.62807678      10.00000000      -0.12877486      -0.30965615       0.00007630
C       -0.01311689       4.01783507      10.00000000      -0.37877861      -1.01060022       0.00021191
C        1.17960686       4.71982639      10.00000000      -0.07678723       0.93362397      -0.00088792
C        2.53175081       7.06378150      10.00000000      -0.79302499      -0.36121587      -0.00173549
C        2.54438514       8.44872938      10.00000000       0.67626842       0.76884586       0.00014360
C        3.77341498       9.09884503      10.00000000       0.19684341       0.30898486       0.00039653
C        3.72607066      10.49363473      10.00000000      -0.02116591      -0.00048670       0.00008327
C        2.48403183       2.67372211      10.00000000       0.37684199       0.12039813       0.00006516
C        2.41500233       4.10756281      10.00000000       1.38392334      -0.79505479       0.00025289
C        3.63739856       4.86418701      10.00000000       0.41958589      -0.26529516      -0.00011377
C        3.68067784       6.30038185      10.00000000       1.37482817      -0.76837752       0.00039062
C        4.95710118       6.95791183      10.00000000       0.09669106      -0.40701221      -0.00000345
C        4.99842492       8.37232189      10.00000000       0.05684730      -0.46617803       0.00015614
C        6.25024099       9.03652569      10.00000000      -0.15713433       0.08195667      -0.00008459
C        6.19948042      10.45238139      10.00000000       0.42416967       0.19184990       0.00000746
Pt       0.64722720       6.58994552      10.00000000      -0.00217860       0.00061370       0.00233048
H        0.27722720       6.58994552      14.00000000      -0.50460249       0.00167375       0.00183587
H        1.01722720       6.58994552      14.00000000       0.50457240      -0.00167176       0.00183518
33
Lattice="9.84 0.0 0.0 4.92 8.521689973238876 0.0 0.0 0.0 20.0" Properties=species:S:1:pos:R:3:forces:R:3 energy=-268.5425488876105 pbc="T T F"
C       -4.90407279       2.72825394      10.00000000      -0.12406607      -0.13667483      -0.00175769
C       -4.95509823       4.14406101      10.00000000      -0.23100211      -0.09110406      -0.00051433
C       -3.70324291       4.80768718      10.00000000       0.10134332       0.19334820      -0.00156752
C       -3.66224620       6.22199923      10.00000000      -0.00741411       0.28363539       0.00377171
C       -2.38584244       6.87990464      10.00000000      -0.21358286      -0.47033198      -0.00294178
C       -2.34260280       8.31639578      10.00000000       0.04455945       0.08295390       0.00438342
C       -1.12011677       9.07272175      10.00000000       0.05563045       0.11482021      -0.00344721
C       -1.18885840      10.50678026      10.00000000       0.04478862      -0.00849649       0.00478842
C       -2.43055663       2.68615078      10.00000000      -0.01447948       0.02464796      -0.00031779
C       -2.47816054       4.08081684      10.00000000      -0.22806026      -0.14277571       0.00313197
C       -1.24980115       4.73157830      10.00000000      -0.57130857       1.04130526       0.00820204
N       -1.23757445       6.11658101      10.00000000      -1.38705355      -0.62429039      -0.08793992
N        0.11440283       8.45981585      10.00000000       0.59795136       0.85906303      -0.09278353
C        1.30792642       9.16224746      10.00000000      -0.99627623       0.50664856       0.00711937
C        1.25803020      10.55216557      10.00000000      -0.21913941       0.08103712       0.00841028
C        0.03720704       2.62807678      10.00000000      -0.01150069      -0.09043077       0.00469211
C       -0.01311689       4.01783507      10.00000000       1.08858447      -0.05998723       0.00669930
N        1.17960686       4.71982639      10.00000000      -0.52736865      -0.17084988      -0.09526699
C        2.53175081       7.06378150      10.00000000      -1.33577308       0.19317053      -0.10619103
C        2.54438514       8.44872938      10.00000000       0.20412354      -0.00419693       0.00530616
C        3.77341498       9.09884503      10.00000000       0.09113037       0.42595948       0.00649545
C        3.72607066      10.49363473      10.00000000       0.26234389      -0.09076612       0.00030512
C        2.48403183       2.67372211      10.00000000      -0.06144293       0.07659694       0.00484480
C        2.41500233       4.10756281      10.00000000       0.31494993      -0.24305381       0.00016066
C        3.63739856       4.86418701      10.00000000       0.34255454      -0.32798277       0.00415468
C        3.68067784       6.30038185      10.00000000       0.92144773      -0.69458922       0.00015984
C        4.95710118       6.95791183      10.00000000       0.19020428      -0.20235419       0.00335336
C        4.99842492       8.37232189      10.00000000       0.03838489      -0.16006010      -0.00063190
C        6.25024099       9.03652569      10.00000000       0.03522886      -0.11073413      -0.00027822
C        6.19948042      10.45238139      10.00000000       0.13596572       0.10782398      -0.00230437
Pt       0.64722720       6.58994552      10.00000000       1.46535833      -0.36251980      -0.28260128
H        0.64722720       6.58994552      12.20000000       0.01817062       0.00396444      -0.67209730
H        0.64722720       6.58994552      12.94000000      -0.02116045      -0.00360117       1.26518584
32
Lattice="9.84 0.0 0.0 4.92 8.521689973238876 0.0 0.0 0.0 20.0" Properties=species:S:1:pos:R:3:forces:R:3 energy=-258.7146166225102 pbc="T T F"
C       -4.90407279       2.72825394      10.00000000      -0.53991052      -0.41683667      -0.00004651
C       -4.95509823       4.14406101      10.00000000       0.76456250       0.28670067      -0.00005394
C       -3.70324291       4.80768718      10.00000000      -0.11050175       0.44360380       0.00005608
C       -3.66224620       6.22199923      10.00000000       0.41472903      -0.24899948       0.00003258
C       -2.38584244       6.87990464      10.00000000      -0.12349046       0.53310265      -0.00075207
C       -2.34260280       8.31639578      10.00000000       0.06689507       0.02204726       0.00056754
C       -1.12011677       9.07272175      10.00000000       0.23348173       0.19251147       0.00010458
C       -1.18885840      10.50678026      10.00000000      -0.29296118      -0.19811536      -0.00000721
C       -2.43055663       2.68615078      10.00000000       0.23829575      -0.31041938      -0.00000611
C       -2.47816054       4.08081684      10.00000000      -0.05294429       0.39573397       0.00040050
C       -1.24980115       4.73157830      10.00000000      -0.49819366       0.28793568      -0.00018238
N       -1.23757445       6.11658101      10.00000000       0.60806164      -1.28671072      -0.00024380
N        0.11440283       8.45981585      10.00000000      -0.95529977       1.35569587      -0.00044301
C        1.30792642       9.16224746      10.00000000      -0.20528233      -1.65433139       0.00043466
C        1.25803020      10.55216557      10.00000000       0.33656439       0.85009601      -0.00018485
C        0.03720704       2.62807678      10.00000000      -0.25281782      -0.41719263       0.00015109
C       -0.01311689       4.01783507      10.00000000      -0.18086793      -0.24940148       0.00015610
C        1.17960686       4.71982639      10.00000000      -0.36978553       1.22049770      -0.00095674
C        2.54438514       8.44872938      10.00000000      -0.95085915      -0.82053788       0.00088783
C        3.77341498       9.09884503      10.00000000      -0.79765884      -1.90420481       0.00000291
C        3.72607066      10.49363473      10.00000000      -0.11668133       0.16028853      -0.00000233
C        2.48403183       2.67372211      10.00000000       0.13424291      -0.13723269       0.00013759
C        2.41500233       4.10756281      10.00000000       0.67172421      -0.75475647      -0.00003859
C        3.63739856       4.86418701      10.00000000      -0.72407152       1.72934197      -0.00010933
C        3.68067784       6.30038185      10.00000000       1.46127993      -0.62886266       0.00054707
C        4.95710118       6.95791183      10.00000000      -1.90160347      -0.01334093      -0.00015956
C        4.99842492       8.37232189      10.00000000       0.81825963       0.31634694      -0.00020606
C        6.25024099       9.03652569      10.00000000      -0.30083968      -0.27986517      -0.00011575
C        6.19948042      10.45238139      10.00000000       0.20098374       0.16323455      -0.00003043
Pt       0.64722720       6.58994552      10.00000000       2.42626708       1.36579294      -0.00009933
H        0.27722720       6.58994552      14.00000000      -0.50296540       0.00079492       0.00456774
H        1.01722720       6.58994552      14.00000000       0.50550456      -0.00085241      -0.00235591
33
Lattice="9.84 0.0 0.0 4.92 8.521689973238876 0.0 0.0 0.0 20.0" Properties=species:S:1:pos:R:3:forces:R:3 energy=-267.3573004995333 pbc="T T F"
C       -4.90407279       2.72825394      10.00000000      -0.20726749      -0.17328116       0.00011511
C       -4.95509823       4.14406101      10.00000000      -0.14121222       0.14370767      -0.00645557
C       -3.70324291       4.80768718      10.00000000       0.04915052       0.37339520       0.00153478
C       -3.66224620       6.22199923      10.00000000       0.12360185      -0.09235753       0.02838267
C       -2.38584244       6.87990464      10.00000000      -0.38102246       0.12984968      -0.00752951
C       -2.34260280       8.31639578      10.00000000      -0.32023671       0.16159839      -0.00222096
C       -1.12011677       9.07272175      10.00000000      -1.22727188       0.83077784       0.03837786
C       -1.18885840      10.50678026      10.00000000      -0.34868849      -0.11313869      -0.01484578
C       -2.43055663       2.68615078      10.00000000      -0.17879036       0.16331283       0.01594603
C       -2.47816054       4.08081684      10.00000000      -0.25711852       0.02835482       0.07595316
C       -1.24980115       4.73157830      10.00000000      -1.24378081       1.39616307      -0.09589639
N       -1.23757445       6.11658101      10.00000000      -0.83502380      -1.86915929      -0.89976663
C        0.11440283       8.45981585      10.00000000       0.81012221       0.02833414      -0.55101829
C        1.30792642       9.16224746      10.00000000      -0.77760565       0.25492111       0.01398914
C        1.25803020      10.55216557      10.00000000       0.28789980       0.43153524       0.03796958
C        0.03720704       2.62807678      10.00000000      -0.29093550      -0.44219042       0.03804106
C       -0.01311689       4.01783507      10.00000000       0.74520291      -0.25850934       0.01403301
C        1.17960686       4.71982639      10.00000000      -0.75103250      -0.00501581      -0.55097609
N        2.53175081       7.06378150      10.00000000       0.86057449       1.85199002      -0.89987575
C        2.54438514       8.44872938      10.00000000       1.25663025      -1.40484818      -0.09574756
C        3.77341498       9.09884503      10.00000000       0.24500669      -0.01656270       0.07588169
C        3.72607066      10.49363473      10.00000000       0.17471925      -0.16690813       0.01594969
C        2.48403183       2.67372211      10.00000000       0.36035190       0.11157810      -0.01487864
C        2.41500233       4.10756281      10.00000000       1.21135726      -0.81732243       0.03836706
C        3.63739856       4.86418701      10.00000000       0.32283656      -0.17246410      -0.00215753
C        3.68067784       6.30038185      10.00000000       0.35915971      -0.11690265      -0.00751766
C        4.95710118       6.95791183      10.00000000      -0.11737783       0.10160068       0.02833564
C        4.99842492       8.37232189      10.00000000      -0.04573711      -0.37387598       0.00153277
C        6.25024099       9.03652569      10.00000000       0.13239257      -0.14913943      -0.00643896
C        6.19948042      10.45238139      10.00000000       0.19360358       0.16087845       0.00010903
Pt       0.64722720       6.58994552      10.00000000      -0.00273058      -0.00010954       3.52204563
H       -0.25277280       6.58994552      12.20000000       2.52828549       0.20522874      -0.39174907
H        1.54722720       6.58994552      12.20000000      -2.52811069      -0.20541070      -0.39180447
32
Lattice="9.84 0.0 0.0 4.92 8.521689973238876 0.0 0.0 0.0 20.0" Properties=species:S:1:pos:R:3:forces:R:3 energy=-258.5801159327931 pbc="T T F"
C       -4.90407279       2.72825394      10.00000000      -0.53406678      -0.36196058       0.00476361
C       -4.95509823       4.14406101      10.00000000       0.73716282       0.28216792       0.09293600
C       -3.70324291       4.80768718      10.00000000      -0.07148191       0.38902853      -0.01149549
C       -3.66224620       6.22199923      10.00000000       0.26404728      -0.16347942       0.01783095
C       -2.38584244       6.87990464      10.00000000      -0.62871188       1.28523855       0.12000283
C       -2.34260280       8.31639578      10.00000000      -0.15327720       0.64771067      -0.00968297
C       -1.12011677       9.07272175      10.00000000      -0.61437381       0.23903892       0.03787720
C       -1.18885840      10.50678026      10.00000000      -0.16302164      -0.23386606       0.00826487
C       -2.43055663       2.68615078      10.00000000       0.08656795      -0.26784354       0.00090203
C       -2.47816054       4.08081684      10.00000000      -0.17355041       0.10992996       0.08345889
C       -1.24980115       4.73157830      10.00000000      -0.10972011      -0.48494581       0.10834859
C       -1.23757445       6.11658101      10.00000000       0.17737575      -1.22297472      -1.21507304
N        0.11440283       8.45981585      10.00000000      -0.86855201       1.94146130      -0.63575553
C        1.30792642       9.16224746      10.00000000      -0.16646812      -1.53496759      -0.06098338
C        1.25803020      10.55216557      10.00000000       0.30914764       0.75961922      -0.08909615
C        0.03720704       2.62807678      10.00000000      -0.03907889      -0.36521836       0.09996722
C       -0.01311689       4.01783507      10.00000000       0.08886435      -0.62761608       0.07801853
C        1.17960686       4.71982639      10.00000000      -0.42916438      -0.34128317      -0.69238845
C        2.54438514       8.44872938      10.00000000      -0.67506690      -0.70435787       0.13832775
C        3.77341498       9.09884503      10.00000000      -0.71536848      -1.77066324      -0.02107669
C        3.72607066      10.49363473      10.00000000      -0.15924896       0.22467414      -0.01377626
C        2.48403183       2.67372211      10.00000000      -0.01726390      -0.22496750      -0.03289942
C        2.41500233       4.10756281      10.00000000       0.78967926      -0.48687923      -0.00912171
C        3.63739856       4.86418701      10.00000000      -0.72025713       1.50585422       0.04349008
C        3.68067784       6.30038185      10.00000000       1.77916596      -0.43598541      -0.28081703
C        4.95710118       6.95791183      10.00000000      -1.95963357      -0.23324142       0.01013177
C        4.99842492       8.37232189      10.00000000       0.75426352       0.27380311      -0.00467199
C        6.25024099       9.03652569      10.00000000      -0.10609765      -0.13197410       0.01235395
C        6.19948042      10.45238139      10.00000000       0.23890330       0.20480853       0.00481090
Pt       0.64722720       6.58994552      10.00000000       2.16386381       1.74731321      -8.25909207
H        0.27722720       6.58994552      11.40000000      -5.05940602       0.00508289       4.96882833
H        1.01722720       6.58994552      11.40000000       5.97932368      -0.02234584       5.49580672
33
Lattice="9.84 0.0 0.0 4.92 8.521689973238876 0.0 0.0 0.0 20.0" Properties=species:S:1:pos:R:3:forces:R:3 energy=-265.8166485802759 pbc="T T F"
C       -4.90407279       2.72825394      10.00000000       0.00836580      -0.01851454      -0.00251512
C       -4.95509823       4.14406101      10.00000000      -0.00597976       0.00337762       0.00026352
C       -3.70324291       4.80768718      10.00000000       0.00669355      -0.01607621      -0.00270120
C       -3.66224620       6.22199923      10.00000000      -0.02343180       0.04418066       0.00424054
C       -2.38584244       6.87990464      10.00000000       0.01263829      -0.03841548      -0.01634144
C       -2.34260280       8.31639578      10.00000000      -0.01772127       0.02109144       0.00850220
C       -1.12011677       9.07272175      10.00000000       0.03165469      -0.00660214      -0.01368835
C       -1.18885840      10.50678026      10.00000000      -0.01217828       0.00767594       0.00450183
C       -2.43055663       2.68615078      10.00000000      -0.01129974       0.01299511      -0.00248769
C       -2.47816054       4.08081684      10.00000000      -0.00037652       0.00193643      -0.00138741
C       -1.24980115       4.73157830      10.00000000       0.02736155       0.00431330       0.00482068
N       -1.23757445       6.11658101      10.00000000      -0.10186424      -0.00549401      -0.03148706
N        0.11440283       8.45981585      10.00000000      -0.02396726       0.06692642      -0.03626173
C        1.30792642       9.16224746      10.00000000       0.00595763       0.01246475       0.00680516
C        1.25803020      10.55216557      10.00000000      -0.02874372      -0.02841966      -0.00082342
C        0.03720704       2.62807678      10.00000000       0.02491022       0.01887305      -0.00081442
C       -0.01311689       4.01783507      10.00000000      -0.03496336      -0.01579928       0.00683553
N        1.17960686       4.71982639      10.00000000       0.07803935      -0.03882204      -0.03612066
N        2.53175081       7.06378150      10.00000000       0.12866902      -0.01255074      -0.03176875
C        2.54438514       8.44872938      10.00000000      -0.01522036      -0.01238412       0.00479839
C        3.77341498       9.09884503      10.00000000      -0.01126501       0.00940928      -0.00138103
C        3.72607066      10.49363473      10.00000000       0.00622076      -0.01642886      -0.00246362
C        2.48403183       2.67372211      10.00000000       0.02314352      -0.00921902       0.00449048
C        2.41500233       4.10756281      10.00000000      -0.04486753       0.01721736      -0.01370585
C        3.63739856       4.86418701      10.00000000       0.01977706      -0.03198440       0.00848398
C        3.68067784       6.30038185      10.00000000      -0.03520071       0.05242044      -0.01633413
C        4.95710118       6.95791183      10.00000000       0.02976468      -0.03469624       0.00425095
C        4.99842492       8.37232189      10.00000000      -0.00358948       0.01534952      -0.00274738
C        6.25024099       9.03652569      10.00000000      -0.00222251      -0.00920785       0.00026576
C        6.19948042      10.45238139      10.00000000      -0.02195217       0.00662168      -0.00247043
Pt       0.64722720       6.58994552      10.00000000      -0.00249600      -0.00030827      -0.53023804
H        0.27722720       6.58994552      12.60000000      -0.47035482       0.00369998       0.33667737
H        1.01722720       6.58994552      12.60000000       0.47036687      -0.00366122       0.33667821
33
Lattice="9.84 0.0 0.0 4.92 8.521689973238876 0.0 0.0 0.0 20.0" Properties=species:S:1:pos:R:3:forces:R:3 energy=-273.76215177194365 pbc="T T F"
C       -4.90407279       2.72825394      10.00000000      -0.37119987      -0.20569662      -0.00001336
C       -4.95509823       4.14406101      10.00000000       0.04560698       0.14170122      -0.00000243
C       -3.70324291       4.80768718      10.00000000       0.00454987       0.30444361      -0.00002865
C       -3.66224620       6.22199923      10.00000000      -0.07108363       0.20491157       0.00127886
C       -2.38584244       6.87990464      10.00000000      -1.27449716       0.91366235       0.00168260
C       -2.34260280       8.31639578      10.00000000      -0.51788358       0.32098120      -0.00126517
C       -1.12011677       9.07272175      10.00000000      -1.37470231       0.86654681       0.00147377
C       -1.18885840      10.50678026      10.00000000      -0.34881730      -0.12008357       0.00054130
C       -2.43055663       2.68615078      10.00000000      -0.22840769       0.14570452       0.00052605
C       -2.47816054       4.08081684      10.00000000      -0.25507658      -0.29121066       0.00359374
C       -1.24980115       4.73157830      10.00000000      -0.89109420      -0.24928894      -0.00034734
C       -1.23757445       6.11658101      10.00000000       1.55186630      -0.16797398      -0.03360903
C        0.11440283       8.45981585      10.00000000       0.46330661      -0.69796443      -0.02653896
C        1.30792642       9.16224746      10.00000000      -0.42159324       0.47928527      -0.00102332
C        1.25803020      10.55216557      10.00000000       0.33085998       0.33655679       0.00005577
C        0.03720704       2.62807678      10.00000000      -0.18874605      -0.35290098       0.00247491
C       -0.01311689       4.01783507      10.00000000       0.20984653      -0.97317644      -0.00149322
C        1.17960686       4.71982639      10.00000000      -0.57064147       0.55500514      -0.03129341
N        2.53175081       7.06378150      10.00000000       1.21790825       1.06642202      -0.02884743
C        2.54438514       8.44872938      10.00000000       1.28693693      -1.11375844      -0.00154523
C        3.77341498       9.09884503      10.00000000       0.23907195       0.01701772       0.00183012
C        3.72607066      10.49363473      10.00000000      -0.03758373      -0.06188426       0.00073579
C        2.48403183       2.67372211      10.00000000       0.45768318       0.13695187       0.00031686
C        2.41500233       4.10756281      10.00000000       1.40255119      -0.83388527       0.00098541
C        3.63739856       4.86418701      10.00000000       0.08291341      -0.44100683      -0.00036442
C        3.68067784       6.30038185      10.00000000       0.37214942       0.42938198       0.00052329
C        4.95710118       6.95791183      10.00000000      -0.03833105      -0.07958590       0.00101278
C        4.99842492       8.37232189      10.00000000      -0.04716527      -0.52371427      -0.00002524
C        6.25024099       9.03652569      10.00000000       0.07935553       0.07058818      -0.00000777
C        6.19948042      10.45238139      10.00000000       0.32816202       0.16439349       0.00031973
Pt       0.64722720       6.58994552      10.00000000      -1.42485473      -0.04162608      -0.03220271
H        0.64722720       6.58994552      12.60000000      -0.01188639      -0.00369143      -0.65297994
H        0.64722720       6.58994552      13.34000000       0.00779299       0.00354494       0.79329705
33
Lattice="9.84 0.0 0.0 4.92 8.521689973238876 0.0 0.0 0.0 20.0" Properties=species:S:1:pos:R:3:forces:R:3 energy=-267.9847887300007 pbc="T T F"
C       -4.90407279       2.72825394      10.00000000      -0.17167748      -0.18126293       0.00163369
C       -4.95509823       4.14406101      10.00000000      -0.06718924       0.18410644      -0.01284838
C       -3.70324291       4.80768718      10.00000000      -0.00673166       0.29226310      -0.00049579
C       -3.66224620       6.22199923      10.00000000       0.15891934      -0.15260998       0.04672918
C       -2.38584244       6.87990464      10.00000000      -0.54497560       0.53003532       0.00141969
C       -2.34260280       8.31639578      10.00000000      -0.40782382      -0.01414776      -0.03239324
C       -1.12011677       9.07272175      10.00000000      -1.17018017       0.68453992       0.08435933
C       -1.18885840      10.50678026      10.00000000      -0.32899933      -0.04999757      -0.03041812
C       -2.43055663       2.68615078      10.00000000      -0.10405401       0.11078042       0.01948888
C       -2.47816054       4.08081684      10.00000000      -0.15450782       0.13220192       0.12484649
C       -1.24980115       4.73157830      10.00000000      -1.02804674       0.76994216      -0.13895078
N       -1.23757445       6.11658101      10.00000000      -1.08886388      -1.87297510      -1.42842386
C        0.11440283       8.45981585      10.00000000       0.54654363       0.16739939      -0.75809613
C        1.30792642       9.16224746      10.00000000      -0.25820868       0.15108285      -0.00530949
C        1.25803020      10.55216557      10.00000000       0.25863030       0.40830156       0.04411339
C        0.03720704       2.62807678      10.00000000      -0.26151095      -0.41847398       0.04421336
C       -0.01311689       4.01783507      10.00000000       0.22557200      -0.15523654      -0.00526734
C        1.17960686       4.71982639      10.00000000      -0.48757173      -0.14358576      -0.75805031
N        2.53175081       7.06378150      10.00000000       1.11500588       1.85550298      -1.42857873
C        2.54438514       8.44872938      10.00000000       1.04078422      -0.77861737      -0.13865444
C        3.77341498       9.09884503      10.00000000       0.14240132      -0.12040890       0.12477376
C        3.72607066      10.49363473      10.00000000       0.09974642      -0.11440625       0.01949795
C        2.48403183       2.67372211      10.00000000       0.34069032       0.04851711      -0.03048230
C        2.41500233       4.10756281      10.00000000       1.15443190      -0.67137640       0.08433652
C        3.63739856       4.86418701      10.00000000       0.41047300       0.00306261      -0.03227211
C        3.68067784       6.30038185      10.00000000       0.52274306      -0.51665960       0.00147157
C        4.95710118       6.95791183      10.00000000      -0.15255160       0.16196982       0.04666921
C        4.99842492       8.37232189      10.00000000       0.01012369      -0.29276226      -0.00050000
C        6.25024099       9.03652569      10.00000000       0.05835310      -0.18945898      -0.01281667
C        6.19948042      10.45238139      10.00000000       0.15785268       0.16872516       0.00163477
Pt       0.64722720       6.58994552      10.00000000      -0.00264285      -0.00023997       6.50073873
H       -0.25277280       6.58994552      11.80000000       2.03522818       0.37258366      -1.17272553
H        1.54722720       6.58994552      11.80000000      -2.03480459      -0.37292092      -1.17288118
33
Lattice="9.84 0.0 0.0 4.92 8.521689973238876 0.0 0.0 0.0 20.0" Properties=species:S:1:pos:R:3:forces:R:3 energy=-271.22647431552576 pbc="T T F"
C       -4.90407279       2.72825394      10.00000000      -0.23430126      -0.16911051      -0.00002857
C       -4.95509823       4.14406101      10.00000000      -0.17320342       0.12874480      -0.00011453
C       -3.70324291       4.80768718      10.00000000       0.06994299       0.40640653       0.00001025
C       -3.66224620       6.22199923      10.00000000       0.11194035      -0.05284069       0.00002367
C       -2.38584244       6.87990464      10.00000000      -0.31017198      -0.07226564      -0.00050768
C       -2.34260280       8.31639578      10.00000000      -0.29520597       0.26266226       0.00009584
C       -1.12011677       9.07272175      10.00000000      -1.20637435       0.89262252       0.00012473
C       -1.18885840      10.50678026      10.00000000      -0.38261614      -0.13929820      -0.00004179
C       -2.43055663       2.68615078      10.00000000      -0.22933079       0.19769695       0.00001149
C       -2.47816054       4.08081684      10.00000000      -0.30481691      -0.01995443       0.00031837
C       -1.24980115       4.73157830      10.00000000      -1.37794141       1.66537307       0.00005761
N       -1.23757445       6.11658101      10.00000000      -0.36101507      -1.62247569      -0.00110458
C        0.11440283       8.45981585      10.00000000       0.91585366      -0.16198490      -0.00153047
C        1.30792642       9.16224746      10.00000000      -1.08351850       0.33576893       0.00020766
C        1.25803020      10.55216557      10.00000000       0.31713593       0.45952378       0.00009114
C        0.03720704       2.62807678      10.00000000      -0.32025863      -0.47054578       0.00009019
C       -0.01311689       4.01783507      10.00000000       1.05147241      -0.33891585       0.00021737
C        1.17960686       4.71982639      10.00000000      -0.85646923       0.18470192      -0.00156589
N        2.53175081       7.06378150      10.00000000       0.38642539       1.60509845      -0.00100764
C        2.54438514       8.44872938      10.00000000       1.39070268      -1.67378387       0.00005970
C        3.77341498       9.09884503      10.00000000       0.29270551       0.03174622       0.00030980
C        3.72607066      10.49363473      10.00000000       0.22533511      -0.20127733       0.00000472
C        2.48403183       2.67372211      10.00000000       0.39427879       0.13766262      -0.00003754
C        2.41500233       4.10756281      10.00000000       1.19025426      -0.87904455       0.00010869
C        3.63739856       4.86418701      10.00000000       0.29785072      -0.27322071       0.00010947
C        3.68067784       6.30038185      10.00000000       0.28850443       0.08492926      -0.00050516
C        4.95710118       6.95791183      10.00000000      -0.10579652       0.06203070       0.00001565
C        4.99842492       8.37232189      10.00000000      -0.06649330      -0.40692233       0.00000574
C        6.25024099       9.03652569      10.00000000       0.16439721      -0.13428971      -0.00011838
C        6.19948042      10.45238139      10.00000000       0.22075962       0.15683517      -0.00005540
Pt       0.64722720       6.58994552      10.00000000      -0.00296137       0.00016675       0.00052629
H        0.27722720       6.58994552      14.00000000      -0.49978879       0.00323645       0.00356944
H        1.01722720       6.58994552      14.00000000       0.49978642      -0.00322262       0.00355865
33
Lattice="9.84 0.0 0.0 4.92 8.521689973238876 0.0 0.0 0.0 20.0" Properties=species:S:1:pos:R:3:forces:R:3 energy=-275.4654906626733 pbc="T T F"
C       -4.90407279       2.72825394      10.00000000      -0.43351569      -0.19165017      -0.00028000
C       -4.95509823       4.14406101      10.00000000       0.16360808      -0.09697260      -0.00168180
C       -3.70324291       4.80768718      10.00000000      -0.06097533       0.45450047      -0.00022782
C       -3.66224620       6.22199923      10.00000000      -0.09477526       0.40630976       0.00157781
C       -2.38584244       6.87990464      10.00000000      -1.42039326       0.80212642       0.02959541
C       -2.34260280       8.31639578      10.00000000      -0.39845069       0.25565055      -0.00912733
C       -1.12011677       9.07272175      10.00000000      -1.43652212       0.81761822       0.02931701
C       -1.18885840      10.50678026      10.00000000      -0.36594554      -0.11871552       0.00270751
C       -2.43055663       2.68615078      10.00000000       0.03581737      -0.01408541       0.00217017
C       -2.47816054       4.08081684      10.00000000      -0.18253325      -0.28623288       0.01683468
C       -1.24980115       4.73157830      10.00000000      -0.62947795      -0.91292134       0.00729107
C       -1.23757445       6.11658101      10.00000000       0.72435897       0.32031263      -0.33648128
C        0.11440283       8.45981585      10.00000000       0.12401754      -0.87147059      -0.31619357
C        1.30792642       9.16224746      10.00000000       0.47819735       1.03568129       0.01148925
C        1.25803020      10.55216557      10.00000000       0.13477031       0.27039735       0.02176361
C        0.03720704       2.62807678      10.00000000      -0.13844380      -0.27972259       0.02180704
C       -0.01311689       4.01783507      10.00000000      -0.50939777      -1.04011075       0.01151367
C        1.17960686       4.71982639      10.00000000      -0.06563201       0.89414545      -0.31606774
C        2.53175081       7.06378150      10.00000000      -0.69911875      -0.33596802      -0.33670029
C        2.54438514       8.44872938      10.00000000       0.64342212       0.90567032       0.00731839
C        3.77341498       9.09884503      10.00000000       0.16991665       0.29886275       0.01684549
C        3.72607066      10.49363473      10.00000000      -0.03969068       0.00975881       0.00218663
C        2.48403183       2.67372211      10.00000000       0.37758512       0.11712370       0.00269177
C        2.41500233       4.10756281      10.00000000       1.41999051      -0.80386101       0.02929103
C        3.63739856       4.86418701      10.00000000       0.40091234      -0.26646251      -0.00911330
C        3.68067784       6.30038185      10.00000000       1.39793781      -0.78800111       0.02962972
C        4.95710118       6.95791183      10.00000000       0.10106429      -0.39736837       0.00155017
C        4.99842492       8.37232189      10.00000000       0.06435757      -0.45560836      -0.00022228
C        6.25024099       9.03652569      10.00000000      -0.17195339       0.09139071      -0.00166503
C        6.19948042      10.45238139      10.00000000       0.42075233       0.17926277      -0.00026903
Pt       0.64722720       6.58994552      10.00000000      -0.00230882       0.00038500      -0.10891769
H        0.22222720       6.58994552      12.20000000       1.95880307       0.00450798       0.59604410
H        1.07222720       6.58994552      12.20000000      -1.95878265      -0.00466405       0.59601225
33
Lattice="9.84 0.0 0.0 4.92 8.521689973238876 0.0 0.0 0.0 20.0" Properties=species:S:1:pos:R:3:forces:R:3 energy=-261.1213364117609 pbc="T T F"
C       -4.90407279       2.72825394      10.00000000      -0.00393375      -0.07841683       0.01431229
C       -4.95509823       4.14406101      10.00000000       0.05376752       0.03490063       0.02422927
C       -3.70324291       4.80768718      10.00000000      -0.11464739      -0.01978121      -0.00988042
C       -3.66224620       6.22199923      10.00000000       0.39688677       0.24216090       0.15509611
C       -2.38584244       6.87990464      10.00000000      -0.63356518       0.23416997       0.11674060
C       -2.34260280       8.31639578      10.00000000       0.08042126       0.18599584      -0.03083996
C       -1.12011677       9.07272175      10.00000000      -0.39375509       0.09748649      -0.00790771
C       -1.18885840      10.50678026      10.00000000      -0.21973503      -0.23212879       0.02635206
C       -2.43055663       2.68615078      10.00000000       0.18865419      -0.22680779      -0.00624470
C       -2.47816054       4.08081684      10.00000000       0.08424483       0.19066851       0.03540651
C       -1.24980115       4.73157830      10.00000000      -0.05852706      -0.17434200       0.07026319
N       -1.23757445       6.11658101      10.00000000      -0.11931318      -0.31116794      -0.73037807
N        0.11440283       8.45981585      10.00000000       0.05603982       1.08027026      -0.48087762
C        1.30792642       9.16224746      10.00000000       0.00530289      -0.72341398      -0.04130600
C        1.25803020      10.55216557      10.00000000      -0.16937160       0.26986005       0.06358491
C        0.03720704       2.62807678      10.00000000      -0.19997458       0.17133917       0.03935848
C       -0.01311689       4.01783507      10.00000000       0.08048063      -0.09560000       0.04548818
N        1.17960686       4.71982639      10.00000000      -0.75995157      -0.12275235      -0.69515394
N        2.53175081       7.06378150      10.00000000      -0.63003634      -0.01546049       4.61195232
C        2.54438514       8.44872938      10.00000000       0.05331108       4.12159415      -1.57914086
C        3.77341498       9.09884503      10.00000000      -0.47164320      -0.30482250      -0.10130662
C        3.72607066      10.49363473      10.00000000      -0.08913156       0.21100077       0.03815934
C        2.48403183       2.67372211      10.00000000      -0.06750534       0.21570490       0.02217504
C        2.41500233       4.10756281      10.00000000       1.11148472      -0.65409434       0.10357466
C        3.63739856       4.86418701      10.00000000      -0.40067929       0.38125743      -0.04300664
C        3.68067784       6.30038185      10.00000000       4.98029198      -2.85677267      -2.01714874
C        4.95710118       6.95791183      10.00000000      -0.88092885      -0.47244736      -0.15530274
C        4.99842492       8.37232189      10.00000000       0.60540222       0.19568146       0.08471423
C        6.25024099       9.03652569      10.00000000      -0.13758390      -0.12620057      -0.00436546
C        6.19948042      10.45238139      10.00000000       0.46859012      -0.13602463      -0.01127741
Pt       0.64722720       6.58994552      10.00000000      -2.18729359      -0.77189368      -1.05806442
H        0.64722720       6.58994552      11.55000000       0.05209932       0.15475617       1.90520510
H        2.53175081       7.06378150      11.10000000      -0.67310694      -0.46438366      -0.38763509
30
Lattice="9.84 0.0 0.0 4.92 8.521689973238876 0.0 0.0 0.0 20.0" Properties=species:S:1:pos:R:3:forces:R:3 energy=-242.32022392248376 pbc="T T F"
C       -4.87426994       2.71995808      10.03886131      -2.29730060       0.25736176      -1.52827244
C       -4.86371644       4.13001181       9.98595178      -2.43918266       1.58141107       1.06604019
C       -3.60849014       4.85373326       9.97183154      -3.89398124      -4.65236048       0.10457141
C       -3.62969260       6.19419417       9.97205621      -0.27350106       1.22185740      -0.31785621
C       -2.37132470       6.76510783       9.89650493      -6.78788109       9.50224693       0.88588630
C       -2.37634005       8.25562591      10.01885484       0.07868932       1.45096112      -0.55133029
C       -1.17459821       8.98798353      10.08793893       2.99741959       1.30873488      -2.05723713
C       -1.20240498      10.51083195       9.91451511      -1.43613181      -0.70498226       2.70227769
C       -2.46321959       2.69280614       9.93094039       2.12863812      -2.15254592      -0.14771412
C       -2.45561866       4.04477852       9.98249838       0.97479969       4.63500196      -0.14158073
C       -1.28590355       4.84271499       9.99919017       2.30739547      -7.94737690      -0.10581498
N       -1.30103711       6.16593370       9.92674938       8.43301798      -4.47494811       0.23608516
N        0.12693465       8.34223564       9.92030884      -0.66713135       5.82716432       1.38751107
C        1.31973809       9.20655545      10.01028210      -0.85297921      -6.49523404      -1.21981475
C        1.25109130      10.53409935       9.91128868       0.04077511       2.15764016       0.72403179
C       -0.00598361       2.60043845      10.06342733       0.06228851      -2.69246423      -0.61352279
C        0.00750021       3.91205266      10.01944504      -1.71675882       7.69362172       0.06068528
N        1.15650192       4.67921107      10.03670058      -0.09811625       0.88736257       0.13746173
C        2.60624511       8.50460619       9.94964695      -5.95257265      -2.79771685       0.91743418
C        3.75486224       9.11872084      10.05853271       3.54062480      -3.48104738      -1.07822298
C        3.69732021      10.48249519       9.93361990      -0.51953722       1.46905590       0.96428625
C        2.41225943       2.72247366      10.08137440       3.23955528      -1.98703532      -1.37750184
C        2.41068172       4.16777478      10.02169816      -0.95282346      -3.23865496       0.59372778
C        3.59869137       4.88587075      10.09228219       3.36346225       3.28201399      -1.72514054
C        3.67852828       6.39426047       9.84281529       0.75316854      -3.60505783       0.82718863
C        5.00641533       6.96313465       9.98205956      -2.47197863      -5.03099901      -0.54387092
C        5.00393057       8.25306776       9.98681969       1.76662161      11.26753569       0.37477318
C        6.27166774       9.12519933       9.96890379      -1.70554017     -10.09994050       0.47126653
C        6.15097080      10.42227597      10.05492413       1.23332857       5.50253418       0.35063381
Pt       0.66695227       6.55815991      10.03079605       1.14208269       1.33406608      -0.23563546
33
Lattice="9.84 0.0 0.0 4.92 8.521689973238876 0.0 0.0 0.0 20.0" Properties=species:S:1:pos:R:3:forces:R:3 energy=-261.47548091735104 pbc="T T F"
C       -4.90407279       2.72825394      10.00000000       0.07819741      -0.07654080      -0.00986108
C       -4.95509823       4.14406101      10.00000000      -0.05684964       0.04557192       0.01028931
C       -3.70324291       4.80768718      10.00000000       0.06896692      -0.03285131      -0.00970946
C       -3.66224620       6.22199923      10.00000000      -0.14515451       0.05180805       0.08758784
C       -2.38584244       6.87990464      10.00000000       0.20537197      -0.16136739      -0.20109938
C       -2.34260280       8.31639578      10.00000000      -0.09990408       0.05434678       0.06886631
C       -1.12011677       9.07272175      10.00000000       0.24050566      -0.08503549      -0.07894206
C       -1.18885840      10.50678026      10.00000000      -0.08364776       0.07421021       0.04493189
C       -2.43055663       2.68615078      10.00000000       0.01068003      -0.00250433       0.00241280
C       -2.47816054       4.08081684      10.00000000      -0.10845041       0.03795078       0.00220582
C       -1.24980115       4.73157830      10.00000000       0.13640131       0.02886557      -0.00781549
N       -1.23757445       6.11658101      10.00000000      -1.51880926      -0.33041676      -1.11956201
N        0.11440283       8.45981585      10.00000000      -0.29005140       0.81627976      -0.43302170
C        1.30792642       9.16224746      10.00000000       0.00675425      -0.12653714       0.04877245
C        1.25803020      10.55216557      10.00000000      -0.07891962       0.06176958      -0.00037542
C        0.03720704       2.62807678      10.00000000       0.07515439      -0.07121849      -0.00029457
C       -0.01311689       4.01783507      10.00000000      -0.03524858       0.12331457       0.04874792
N        1.17960686       4.71982639      10.00000000       0.34303939      -0.78828712      -0.43312873
N        2.53175081       7.06378150      10.00000000       1.54523976       0.31397457      -1.11926579
C        2.54438514       8.44872938      10.00000000      -0.12415713      -0.03727882      -0.00805216
C        3.77341498       9.09884503      10.00000000       0.09671180      -0.02687393       0.00232786
C        3.72607066      10.49363473      10.00000000      -0.01587139      -0.00070779       0.00247694
C        2.48403183       2.67372211      10.00000000       0.09446828      -0.07554843       0.04489040
C        2.41500233       4.10756281      10.00000000      -0.25315971       0.09508876      -0.07880426
C        3.63739856       4.86418701      10.00000000       0.10162590      -0.06501924       0.06887816
C        3.68067784       6.30038185      10.00000000      -0.22713313       0.17497862      -0.20103314
C        4.95710118       6.95791183      10.00000000       0.15132037      -0.04239795       0.08757358
C        4.99842492       8.37232189      10.00000000      -0.06605814       0.03209171      -0.00969599
C        6.25024099       9.03652569      10.00000000       0.04900474      -0.05171500       0.01026928
C        6.19948042      10.45238139      10.00000000      -0.09173471       0.06502202      -0.00987543
Pt       0.64722720       6.58994552      10.00000000      -0.00266137      -0.00063719       2.41480218
H       -0.25277280       6.58994552      11.80000000       2.19929476       0.05493535       0.38517824
H        1.54722720       6.58994552      11.80000000      -2.19908334      -0.05543361       0.38459018
32
Lattice="9.84 0.0 0.0 4.92 8.521689973238876 0.0 0.0 0.0 20.0" Properties=species:S:1:pos:R:3:forces:R:3 energy=-262.33336699881835 pbc="T T F"
C       -4.90407279       2.72825394      10.00000000      -0.61642238      -0.41054980       0.00917737
C       -4.95509823       4.14406101      10.00000000       0.91229452       0.31158213       0.02058757
C       -3.70324291       4.80768718      10.00000000      -0.17139177       0.45410234      -0.00358891
C       -3.66224620       6.22199923      10.00000000       0.30508373      -0.14789928       0.02357687
C       -2.38584244       6.87990464      10.00000000      -1.22809809       1.32164524       0.08707675
C       -2.34260280       8.31639578      10.00000000      -0.45186955       0.25132726      -0.02759026
C       -1.12011677       9.07272175      10.00000000      -1.49155569       0.74887029       0.05447806
C       -1.18885840      10.50678026      10.00000000      -0.44738597      -0.08705344      -0.00228025
C       -2.43055663       2.68615078      10.00000000      -0.06396927      -0.15226801       0.00190139
C       -2.47816054       4.08081684      10.00000000      -0.05845356       0.12031253       0.06186255
C       -1.24980115       4.73157830      10.00000000      -0.41624523      -0.60861631       0.06602308
C       -1.23757445       6.11658101      10.00000000       1.83882440      -0.44496853      -0.77394892
C        0.11440283       8.45981585      10.00000000      -0.64211560      -0.89516506      -0.50476678
C        1.30792642       9.16224746      10.00000000       0.79054994      -0.88569695       0.00732007
C        1.25803020      10.55216557      10.00000000       0.68061382       1.07221329      -0.02448196
C        0.03720704       2.62807678      10.00000000      -0.06967990      -0.53903306       0.10627806
C       -0.01311689       4.01783507      10.00000000       0.04908145      -0.70893650       0.01729302
C        1.17960686       4.71982639      10.00000000       0.42560130      -0.19797518      -0.63979970
C        2.54438514       8.44872938      10.00000000      -0.15032517      -0.68758326      -0.01120878
C        3.77341498       9.09884503      10.00000000      -0.75439721      -1.76067599      -0.00720924
C        3.72607066      10.49363473      10.00000000      -0.35715912       0.42435451       0.01001279
C        2.48403183       2.67372211      10.00000000       0.26334792      -0.03294227      -0.00167972
C        2.41500233       4.10756281      10.00000000       0.39692642      -0.93877252       0.01690426
C        3.63739856       4.86418701      10.00000000      -0.81887496       1.66670990      -0.01004812
C        3.68067784       6.30038185      10.00000000       1.64511509      -0.55598806      -0.05070492
C        4.95710118       6.95791183      10.00000000      -1.93524188      -0.29739398      -0.00351742
C        4.99842492       8.37232189      10.00000000       0.77149868      -0.15628424      -0.00578421
C        6.25024099       9.03652569      10.00000000      -0.31790960      -0.05008335       0.00579435
C        6.19948042      10.45238139      10.00000000       0.39930571       0.26393846       0.00214136
Pt       0.64722720       6.58994552      10.00000000       1.22164684       2.86825189      -7.28246655
H        0.64722720       6.58994552      11.40000000       0.00871356       0.01138545       4.86270352
H        0.64722720       6.58994552      12.14000000       0.28625081       0.04627153       3.99218684
33
Lattice="9.84 0.0 0.0 4.92 8.521689973238876 0.0 0.0 0.0 20.0" Properties=species:S:1:pos:R:3:forces:R:3 energy=-276.08593164090644 pbc="T T F"
C       -4.90407279       2.72825394      10.00000000      -0.43651033      -0.20302862      -0.00005977
C       -4.95509823       4.14406101      10.00000000       0.15208012      -0.08872621      -0.00013483
C       -3.70324291       4.80768718      10.00000000      -0.05458789       0.46429049      -0.00005446
C       -3.66224620       6.22199923      10.00000000      -0.09176398       0.41432865       0.00038412
C       -2.38584244       6.87990464      10.00000000      -1.39830242       0.78581291       0.00119638
C       -2.34260280       8.31639578      10.00000000      -0.41613226       0.25216543      -0.00106453
C       -1.12011677       9.07272175      10.00000000      -1.40299850       0.80772123       0.00119786
C       -1.18885840      10.50678026      10.00000000      -0.36393962      -0.11939744       0.00038645
C       -2.43055663       2.68615078      10.00000000       0.01897849      -0.00445620       0.00050700
C       -2.47816054       4.08081684      10.00000000      -0.20832862      -0.29580164       0.00145669
C       -1.24980115       4.73157830      10.00000000      -0.65793889      -0.79026437      -0.00170943
C       -1.23757445       6.11658101      10.00000000       0.80007733       0.33939621      -0.02703807
C        0.11440283       8.45981585      10.00000000       0.13138228      -0.89200671      -0.02696544
C        1.30792642       9.16224746      10.00000000       0.36234714       1.00892416      -0.00170351
C        1.25803020      10.55216557      10.00000000       0.12521452       0.29942311       0.00146371
C        0.03720704       2.62807678      10.00000000      -0.12890428      -0.30886552       0.00145996
C       -0.01311689       4.01783507      10.00000000      -0.39363937      -1.01330949      -0.00172120
C        1.17960686       4.71982639      10.00000000      -0.07294919       0.91465208      -0.02697664
C        2.53175081       7.06378150      10.00000000      -0.77494172      -0.35519679      -0.02704656
C        2.54438514       8.44872938      10.00000000       0.67184725       0.78303548      -0.00170699
C        3.77341498       9.09884503      10.00000000       0.19569090       0.30839877       0.00145816
C        3.72607066      10.49363473      10.00000000      -0.02285358       0.00012689       0.00049942
C        2.48403183       2.67372211      10.00000000       0.37561779       0.11784747       0.00037975
C        2.41500233       4.10756281      10.00000000       1.38649177      -0.79406791       0.00119485
C        3.63739856       4.86418701      10.00000000       0.41856090      -0.26296639      -0.00106461
C        3.68067784       6.30038185      10.00000000       1.37583448      -0.77174196       0.00121100
C        4.95710118       6.95791183      10.00000000       0.09805499      -0.40536488       0.00037530
C        4.99842492       8.37232189      10.00000000       0.05796825      -0.46542482      -0.00005122
C        6.25024099       9.03652569      10.00000000      -0.16042751       0.08312482      -0.00013222
C        6.19948042      10.45238139      10.00000000       0.42368808       0.19065830      -0.00005707
Pt       0.64722720       6.58994552      10.00000000      -0.00218083       0.00061177      -0.04124853
H        0.64722720       6.58994552      12.60000000       0.00001336       0.00000302      -0.63968013
H        0.64722720       6.58994552      13.34000000      -0.00000049      -0.00000081       0.78087383
33
Lattice="9.84 0.0 0.0 4.92 8.521689973238876 0.0 0.0 0.0 20.0" Properties=species:S:1:pos:R:3:forces:R:3 energy=-269.7608104750224 pbc="T T F"
C       -4.90407279       2.72825394      10.00000000      -0.30040666      -0.28207668      -0.00529428
C       -4.95509823       4.14406101      10.00000000      -0.01724409       0.35456414      -0.00270174
C       -3.70324291       4.80768718      10.00000000      -0.01261036       0.21402615      -0.00369461
C       -3.66224620       6.22199923      10.00000000      -0.20584647       0.04995347      -0.04379458
C       -2.38584244       6.87990464      10.00000000      -0.86218796       0.91592640       0.06449555
C       -2.34260280       8.31639578      10.00000000      -0.40603844       0.10900398       0.00991183
C       -1.12011677       9.07272175      10.00000000      -0.20657361       0.40751953       0.06963989
C       -1.18885840      10.50678026      10.00000000      -0.01474444       0.00021369       0.01513771
C       -2.43055663       2.68615078      10.00000000      -0.21396169       0.01570467       0.00874675
C       -2.47816054       4.08081684      10.00000000      -0.13451475      -0.16517083       0.12489231
C       -1.24980115       4.73157830      10.00000000      -0.85886812       0.04249827       0.05139469
C       -1.23757445       6.11658101      10.00000000       0.36939039      -1.10226132      -1.10637799
N        0.11440283       8.45981585      10.00000000       0.33901740       1.93755210      -0.89591128
C        1.30792642       9.16224746      10.00000000      -1.73090272       0.04811602      -0.00035665
C        1.25803020      10.55216557      10.00000000       0.08153289       0.24777696       0.03098201
C        0.03720704       2.62807678      10.00000000      -0.06201665      -0.20975083       0.13082648
C       -0.01311689       4.01783507      10.00000000       0.45689990      -0.73094912       0.07418351
C        1.17960686       4.71982639      10.00000000      -1.11594067       0.07507659      -0.95387872
N        2.53175081       7.06378150      10.00000000       1.73953589       1.38679732      -1.13758154
C        2.54438514       8.44872938      10.00000000       0.87389968      -1.46725905      -0.04143393
C        3.77341498       9.09884503      10.00000000       0.15527319       0.22074491       0.04409312
C        3.72607066      10.49363473      10.00000000       0.10669985      -0.18433073       0.01013033
C        2.48403183       2.67372211      10.00000000       0.14165053      -0.15730077      -0.04313973
C        2.41500233       4.10756281      10.00000000       1.12379777      -0.26681755       0.06358448
C        3.63739856       4.86418701      10.00000000       0.32895988      -0.25234155       0.00511220
C        3.68067784       6.30038185      10.00000000       0.49181624      -0.08531849       0.04581726
C        4.95710118       6.95791183      10.00000000       0.00110904      -0.01239118       0.02422078
C        4.99842492       8.37232189      10.00000000      -0.05927011      -0.39529913      -0.00475396
C        6.25024099       9.03652569      10.00000000       0.29674313       0.14811763      -0.00448398
C        6.19948042      10.45238139      10.00000000       0.18623005       0.10719710      -0.00434074
Pt       0.64722720       6.58994552      10.00000000      -0.33273803      -0.79463056       3.60042668
H        0.09722720       6.58994552      11.80000000       2.25850707       0.00075734      -0.13785596
H        1.19722720       6.58994552      11.80000000      -2.41135049      -0.17279743       0.00501005
33
Lattice="9.84 0.0 0.0 4.92 8.521689973238876 0.0 0.0 0.0 20.0" Properties=species:S:1:pos:R:3:forces:R:3 energy=-267.02946306832627 pbc="T T F"
C       -4.90407279       2.72825394      10.00000000      -0.17736863      -0.18111138       0.00205782
C       -4.95509823       4.14406101      10.00000000      -0.04867470       0.19266319      -0.00906423
C       -3.70324291       4.80768718      10.00000000      -0.02415184       0.27782493       0.01349315
C       -3.66224620       6.22199923      10.00000000       0.18521436      -0.16022844       0.02985348
C       -2.38584244       6.87990464      10.00000000      -0.70614852       0.65283786      -0.07589040
C       -2.34260280       8.31639578      10.00000000      -0.41500762      -0.06086977      -0.05655143
C       -1.12011677       9.07272175      10.00000000      -1.14802298       0.67520780       0.07807101
C       -1.18885840      10.50678026      10.00000000      -0.33685409      -0.05063061      -0.02755328
C       -2.43055663       2.68615078      10.00000000      -0.11804117       0.11435499       0.01672223
C       -2.47816054       4.08081684      10.00000000      -0.13788539       0.15349505       0.10269674
C       -1.24980115       4.73157830      10.00000000      -1.03838283       0.66164479      -0.20365550
N       -1.23757445       6.11658101      10.00000000      -0.98955738      -1.87906107      -1.02226746
C        0.11440283       8.45981585      10.00000000       0.50799688       0.13393717      -0.61384694
C        1.30792642       9.16224746      10.00000000      -0.23752755       0.10641317      -0.00843149
C        1.25803020      10.55216557      10.00000000       0.26197642       0.42463928       0.03173919
C        0.03720704       2.62807678      10.00000000      -0.26486814      -0.43478679       0.03180129
C       -0.01311689       4.01783507      10.00000000       0.20497637      -0.11057800      -0.00840564
C        1.17960686       4.71982639      10.00000000      -0.44910116      -0.11024972      -0.61374662
N        2.53175081       7.06378150      10.00000000       1.01545674       1.86148517      -1.02217137
C        2.54438514       8.44872938      10.00000000       1.05105964      -0.67014937      -0.20338869
C        3.77341498       9.09884503      10.00000000       0.12578210      -0.14168197       0.10264903
C        3.72607066      10.49363473      10.00000000       0.11369876      -0.11798324       0.01673337
C        2.48403183       2.67372211      10.00000000       0.34855209       0.04917733      -0.02761538
C        2.41500233       4.10756281      10.00000000       1.13228202      -0.66199869       0.07807842
C        3.63739856       4.86418701      10.00000000       0.41768562       0.04982383      -0.05645211
C        3.68067784       6.30038185      10.00000000       0.68388098      -0.63952538      -0.07569890
C        4.95710118       6.95791183      10.00000000      -0.17884366       0.16962048       0.02981165
C        4.99842492       8.37232189      10.00000000       0.02756055      -0.27833773       0.01345812
C        6.25024099       9.03652569      10.00000000       0.03981491      -0.19803846      -0.00902652
C        6.19948042      10.45238139      10.00000000       0.16356323       0.16859774       0.00206128
Pt       0.64722720       6.58994552      10.00000000      -0.00270080      -0.00038983       5.92098550
H       -0.50277280       6.58994552      11.80000000       1.56131420       0.35742801      -1.22364400
H        1.79722720       6.58994552      11.80000000      -1.56064509      -0.35762614      -1.22408237
32
Lattice="9.84 0.0 0.0 4.92 8.521689973238876 0.0 0.0 0.0 20.0" Properties=species:S:1:pos:R:3:forces:R:3 energy=-255.18685942185772 pbc="T T F"
C       -4.90407279       2.72825394      10.00000000      -0.28465232      -0.19709983       0.00002919
C       -4.95509823       4.14406101      10.00000000       0.45007517      -0.06780488       0.00060842
C       -3.70324291       4.80768718      10.00000000      -0.06571568       0.26979585      -0.00036275
C       -3.66224620       6.22199923      10.00000000       0.49791536       0.02337903       0.00100328
C       -2.38584244       6.87990464      10.00000000      -0.14805943       0.39521546       0.00098077
C       -2.34260280       8.31639578      10.00000000       0.06760527       0.06125070       0.00008913
C       -1.12011677       9.07272175      10.00000000      -0.03226844      -0.10615804       0.00029794
C       -1.18885840      10.50678026      10.00000000      -0.06867609      -0.07408015       0.00028420
C       -2.43055663       2.68615078      10.00000000       0.14484699      -0.22783492       0.00011788
C       -2.47816054       4.08081684      10.00000000      -0.06225413       0.17753434       0.00061358
C       -1.24980115       4.73157830      10.00000000      -0.04940335       0.32563598       0.00087307
N       -1.23757445       6.11658101      10.00000000       0.50138159      -0.88577231      -0.00581724
N        0.11440283       8.45981585      10.00000000      -0.44385193       0.41002286      -0.00275025
C        1.30792642       9.16224746      10.00000000       0.36587946      -1.11508750      -0.00015239
C        1.25803020      10.55216557      10.00000000       0.03787412       0.59414454      -0.00003211
C        0.03720704       2.62807678      10.00000000      -0.06588878      -0.14522747       0.00052118
C       -0.01311689       4.01783507      10.00000000       0.61253711      -0.06127408       0.00064884
N        1.17960686       4.71982639      10.00000000       0.00431524      -0.09901407      -0.00313641
C        2.54438514       8.44872938      10.00000000      -1.82092650      -0.86928418       0.00066378
C        3.77341498       9.09884503      10.00000000      -0.97089188      -1.66112447       0.00011491
C        3.72607066      10.49363473      10.00000000      -0.08435366       0.23270080       0.00015470
C        2.48403183       2.67372211      10.00000000      -0.08159451       0.01874155       0.00040267
C        2.41500233       4.10756281      10.00000000      -0.09813086      -0.56075126       0.00027335
C        3.63739856       4.86418701      10.00000000      -0.54389362       1.52930698       0.00083445
C        3.68067784       6.30038185      10.00000000       1.37382743      -0.62379281      -0.00254440
C        4.95710118       6.95791183      10.00000000      -1.63237681      -0.37932650       0.00055133
C        4.99842492       8.37232189      10.00000000       0.81730015       0.23176793      -0.00007220
C        6.25024099       9.03652569      10.00000000      -0.29828614      -0.29993027       0.00032533
C        6.19948042      10.45238139      10.00000000       0.15477646       0.12447212      -0.00048725
Pt       0.64722720       6.58994552      10.00000000       1.71711732       2.97828660       0.01025087
H        0.64722720       6.58994552      13.20000000       0.00719841       0.00293478      -0.56907454
H        0.64722720       6.58994552      13.94000000      -0.00371166      -0.00204145       0.57032832
33
Lattice="9.84 0.0 0.0 4.92 8.521689973238876 0.0 0.0 0.0 20.0" Properties=species:S:1:pos:R:3:forces:R:3 energy=-271.19287464935246 pbc="T T F"
C       -4.90407279       2.72825394      10.00000000      -0.23423738      -0.16839140       0.00000858
C       -4.95509823       4.14406101      10.00000000      -0.17230807       0.12815907      -0.00004524
C       -3.70324291       4.80768718      10.00000000       0.06918995       0.40619838      -0.00036991
C       -3.66224620       6.22199923      10.00000000       0.11122890      -0.05236415       0.00084645
C       -2.38584244       6.87990464      10.00000000      -0.31264686      -0.07236053      -0.00150746
C       -2.34260280       8.31639578      10.00000000      -0.29356363       0.26216917       0.00015996
C       -1.12011677       9.07272175      10.00000000      -1.20680529       0.89361505       0.00023155
C       -1.18885840      10.50678026      10.00000000      -0.38207642      -0.13999769       0.00029806
C       -2.43055663       2.68615078      10.00000000      -0.22915587       0.19753908       0.00049903
C       -2.47816054       4.08081684      10.00000000      -0.30392060      -0.02065329       0.00197770
C       -1.24980115       4.73157830      10.00000000      -1.37641106       1.66077757      -0.00142651
N       -1.23757445       6.11658101      10.00000000      -0.36084163      -1.62244268      -0.01884980
C        0.11440283       8.45981585      10.00000000       0.91752134      -0.16424987      -0.02226744
C        1.30792642       9.16224746      10.00000000      -1.08032143       0.33609297       0.00086271
C        1.25803020      10.55216557      10.00000000       0.31741119       0.45715337       0.00133479
C        0.03720704       2.62807678      10.00000000      -0.32053306      -0.46814945       0.00133354
C       -0.01311689       4.01783507      10.00000000       1.04826763      -0.33924051       0.00087103
C        1.17960686       4.71982639      10.00000000      -0.85812737       0.18695409      -0.02227833
N        2.53175081       7.06378150      10.00000000       0.38616527       1.60510456      -0.01879469
C        2.54438514       8.44872938      10.00000000       1.38916797      -1.66918863      -0.00142739
C        3.77341498       9.09884503      10.00000000       0.29179808       0.03244729       0.00198027
C        3.72607066      10.49363473      10.00000000       0.22516806      -0.20110460       0.00049693
C        2.48403183       2.67372211      10.00000000       0.39373624       0.13837688       0.00029591
C        2.41500233       4.10756281      10.00000000       1.19066519      -0.88004963       0.00024399
C        3.63739856       4.86418701      10.00000000       0.29620461      -0.27270719       0.00016828
C        3.68067784       6.30038185      10.00000000       0.29096951       0.08500290      -0.00150961
C        4.95710118       6.95791183      10.00000000      -0.10508492       0.06155217       0.00084919
C        4.99842492       8.37232189      10.00000000      -0.06574647      -0.40672323      -0.00036650
C        6.25024099       9.03652569      10.00000000       0.16351650      -0.13370653      -0.00004786
C        6.19948042      10.45238139      10.00000000       0.22069761       0.15611149       0.00000745
Pt       0.64722720       6.58994552      10.00000000      -0.00296665       0.00016465      -0.04038383
H        0.27722720       6.58994552      13.20000000      -0.48961489       0.00732842       0.05854265
H        1.01722720       6.58994552      13.20000000       0.48966190      -0.00731165       0.05851415
32
Lattice="9.84 0.0 0.0 4.92 8.521689973238876 0.0 0.0 0.0 20.0" Properties=species:S:1:pos:R:3:forces:R:3 energy=-254.88315637932854 pbc="T T F"
C       -4.90407279       2.72825394      10.00000000      -0.53250025      -0.42645106      -0.00221863
C       -4.95509823       4.14406101      10.00000000       0.73416210       0.29728112       0.04355703
C       -3.70324291       4.80768718      10.00000000      -0.09294965       0.41321976      -0.00359569
C       -3.66224620       6.22199923      10.00000000       0.40561185      -0.23770773       0.04170737
C       -2.38584244       6.87990464      10.00000000      -0.17496529       0.41581771      -0.06257508
C       -2.34260280       8.31639578      10.00000000       0.07946353       0.03817282       0.01005985
C       -1.12011677       9.07272175      10.00000000       0.25919266       0.16299820      -0.00749430
C       -1.18885840      10.50678026      10.00000000      -0.26525332      -0.18015178       0.00354004
C       -2.43055663       2.68615078      10.00000000       0.20796582      -0.28384340       0.01586401
C       -2.47816054       4.08081684      10.00000000      -0.07089411       0.35568581       0.08143006
C       -1.24980115       4.73157830      10.00000000      -0.58381878       0.35070973      -0.09277261
N       -1.23757445       6.11658101      10.00000000      -0.32215301      -1.63985113      -0.77942250
N        0.11440283       8.45981585      10.00000000      -0.88668903       1.72186967      -0.18796400
C        1.30792642       9.16224746      10.00000000      -0.41492251      -1.65539594      -0.03206629
C        1.25803020      10.55216557      10.00000000       0.32940939       0.81168856      -0.03233294
C        0.03720704       2.62807678      10.00000000      -0.23039822      -0.44235127       0.01969197
C       -0.01311689       4.01783507      10.00000000      -0.22142950      -0.19876285       0.02075583
C        1.17960686       4.71982639      10.00000000      -0.42163065       1.01413091      -0.32053892
C        2.54438514       8.44872938      10.00000000      -0.88971399      -0.82773543      -0.00684462
C        3.77341498       9.09884503      10.00000000      -0.73926285      -1.93724402       0.02599732
C        3.72607066      10.49363473      10.00000000      -0.13352611       0.17215989       0.00243817
C        2.48403183       2.67372211      10.00000000       0.10495587      -0.13684061       0.00905124
C        2.41500233       4.10756281      10.00000000       0.81981565      -0.70694291      -0.02226136
C        3.63739856       4.86418701      10.00000000      -0.78114414       1.57540076       0.00617917
C        3.68067784       6.30038185      10.00000000       1.54006680      -0.55161257      -0.16272015
C        4.95710118       6.95791183      10.00000000      -1.90091431      -0.00475637       0.03684641
C        4.99842492       8.37232189      10.00000000       0.79877610       0.31991976      -0.01585007
C        6.25024099       9.03652569      10.00000000      -0.29354104      -0.26601137       0.00316479
C        6.19948042      10.45238139      10.00000000       0.21088840       0.16365269       0.00305491
Pt       0.64722720       6.58994552      10.00000000       3.00130105       1.47855919       2.03631339
H       -0.25277280       6.58994552      12.20000000       2.76055579       0.11735429      -0.24407108
H        1.54722720       6.58994552      12.20000000      -2.28854332       0.08613390      -0.36940448
33
Lattice="9.84 0.0 0.0 4.92 8.521689973238876 0.0 0.0 0.0 20.0" Properties=species:S:1:pos:R:3:forces:R:3 energy=-270.69086539919454 pbc="T T F"
C       -4.90407279       2.72825394      10.00000000      -0.38728547      -0.32638016      -0.00312459
C       -4.95509823       4.14406101      10.00000000      -0.02117763       0.37259324      -0.00124534
C       -3.70324291       4.80768718      10.00000000      -0.02370602       0.23810687      -0.00330755
C       -3.66224620       6.22199923      10.00000000      -0.17883310       0.18137897      -0.00492727
C       -2.38584244       6.87990464      10.00000000      -1.02064767       0.74415464       0.01628584
C       -2.34260280       8.31639578      10.00000000      -0.45832645       0.00322863       0.00601280
C       -1.12011677       9.07272175      10.00000000       0.02359719       0.48360931       0.01272879
C       -1.18885840      10.50678026      10.00000000      -0.03314078       0.00584700       0.00794525
C       -2.43055663       2.68615078      10.00000000      -0.27790341       0.08801772       0.00191910
C       -2.47816054       4.08081684      10.00000000      -0.24905064      -0.28561256       0.05401516
C       -1.24980115       4.73157830      10.00000000      -1.10752336       0.41943853       0.03621523
C       -1.23757445       6.11658101      10.00000000       0.95890370      -0.91701902      -0.47267932
N        0.11440283       8.45981585      10.00000000       0.56429906       1.72147101      -0.37887437
C        1.30792642       9.16224746      10.00000000      -2.32421877       0.10601336       0.01612947
C        1.25803020      10.55216557      10.00000000       0.09603145       0.26272556       0.01120365
C        0.03720704       2.62807678      10.00000000      -0.10043613      -0.34069569       0.05656376
C       -0.01311689       4.01783507      10.00000000       0.88551701      -0.78923775       0.04034818
C        1.17960686       4.71982639      10.00000000      -1.25003041       0.46436789      -0.45802470
N        2.53175081       7.06378150      10.00000000       1.30792428       1.34556164      -0.40730882
C        2.54438514       8.44872938      10.00000000       1.22724241      -1.98275507       0.00830548
C        3.77341498       9.09884503      10.00000000       0.17974186       0.26335797       0.01106983
C        3.72607066      10.49363473      10.00000000       0.20402596      -0.20897934       0.00203369
C        2.48403183       2.67372211      10.00000000       0.22117185      -0.07140115      -0.00464576
C        2.41500233       4.10756281      10.00000000       1.15532402      -0.48659071       0.01634878
C        3.63739856       4.86418701      10.00000000       0.22309115      -0.42435214       0.00549874
C        3.68067784       6.30038185      10.00000000       0.38972089       0.28417975       0.00826087
C        4.95710118       6.95791183      10.00000000       0.03936675      -0.05106268       0.00870744
C        4.99842492       8.37232189      10.00000000      -0.07236301      -0.48563319      -0.00312543
C        6.25024099       9.03652569      10.00000000       0.32656491       0.16506241      -0.00157661
C        6.19948042      10.45238139      10.00000000       0.21229209       0.10442057      -0.00324296
Pt       0.64722720       6.58994552      10.00000000      -0.48967694      -0.86575331       0.16180547
H        0.27722720       6.58994552      12.20000000      -0.82503181       0.01345783       0.60547189
H        1.01722720       6.58994552      12.20000000       0.81213118      -0.02531674       0.64524200
32
Lattice="9.84 0.0 0.0 4.92 8.521689973238876 0.0 0.0 0.0 20.0" Properties=species:S:1:pos:R:3:forces:R:3 energy=-264.7244271201938 pbc="T T F"
C       -4.90407279       2.72825394      10.00000000      -0.65619223      -0.41381838      -0.00003600
C       -4.95509823       4.14406101      10.00000000       0.88615054       0.32230978       0.00020010
C       -3.70324291       4.80768718      10.00000000      -0.17924298       0.47901498      -0.00004078
C       -3.66224620       6.22199923      10.00000000       0.30832814      -0.14851256       0.00009907
C       -2.38584244       6.87990464      10.00000000      -1.30360369       1.28386975      -0.00007000
C       -2.34260280       8.31639578      10.00000000      -0.39993617       0.28074056       0.00022557
C       -1.12011677       9.07272175      10.00000000      -1.49930758       0.84298392       0.00001626
C       -1.18885840      10.50678026      10.00000000      -0.47304067      -0.13757435       0.00012964
C       -2.43055663       2.68615078      10.00000000      -0.09922164      -0.13018387       0.00006177
C       -2.47816054       4.08081684      10.00000000      -0.06037058       0.11905289      -0.00029975
C       -1.24980115       4.73157830      10.00000000      -0.55461092      -0.47892887      -0.00015653
C       -1.23757445       6.11658101      10.00000000       2.56100941      -0.26690205       0.00276807
C        0.11440283       8.45981585      10.00000000      -0.50638109      -1.38860497       0.00123048
C        1.30792642       9.16224746      10.00000000       0.65240173      -0.88229736      -0.00008398
C        1.25803020      10.55216557      10.00000000       0.69417911       1.10869050       0.00004922
C        0.03720704       2.62807678      10.00000000      -0.09448578      -0.57344018      -0.00045067
C       -0.01311689       4.01783507      10.00000000       0.17263663      -0.67090542      -0.00001526
C        1.17960686       4.71982639      10.00000000       0.42157355       0.21238624       0.00280968
C        2.54438514       8.44872938      10.00000000      -0.24832826      -0.99128351       0.00010823
C        3.77341498       9.09884503      10.00000000      -0.65035347      -1.70778250       0.00006457
C        3.72607066      10.49363473      10.00000000      -0.37020611       0.38398068       0.00009596
C        2.48403183       2.67372211      10.00000000       0.31031285       0.04033625      -0.00004759
C        2.41500233       4.10756281      10.00000000       0.39733903      -1.05310142      -0.00002358
C        3.63739856       4.86418701      10.00000000      -0.82889826       1.67131756       0.00018680
C        3.68067784       6.30038185      10.00000000       1.59867484      -0.52640089       0.00001571
C        4.95710118       6.95791183      10.00000000      -1.94753149      -0.27740267       0.00026560
C        4.99842492       8.37232189      10.00000000       0.75975339      -0.19512683      -0.00000795
C        6.25024099       9.03652569      10.00000000      -0.32438640      -0.07712314       0.00021589
C        6.19948042      10.45238139      10.00000000       0.47277286       0.29707908      -0.00006495
Pt       0.64722720       6.58994552      10.00000000       0.96601534       2.87738818       0.00902407
H        0.64722720       6.58994552      14.00000000       0.00027897      -0.00187322      -0.53209810
H        0.64722720       6.58994552      14.74000000      -0.00045583       0.00137623       0.52048931
33
Lattice="9.84 0.0 0.0 4.92 8.521689973238876 0.0 0.0 0.0 20.0" Properties=species:S:1:pos:R:3:forces:R:3 energy=-263.51822111173345 pbc="T T F"
C       -4.90407279       2.72825394      10.00000000       0.06256119      -0.05571253      -0.00498112
C       -4.95509823       4.14406101      10.00000000      -0.04681331       0.03037698       0.00651515
C       -3.70324291       4.80768718      10.00000000       0.06167316      -0.03910908      -0.00630934
C       -3.66224620       6.22199923      10.00000000      -0.11473239       0.06871213       0.05479474
C       -2.38584244       6.87990464      10.00000000       0.17399564      -0.15236174      -0.10430989
C       -2.34260280       8.31639578      10.00000000      -0.09940003       0.05267755       0.03006536
C       -1.12011677       9.07272175      10.00000000       0.23239211      -0.06661684      -0.07370997
C       -1.18885840      10.50678026      10.00000000      -0.08203014       0.06090833       0.03912099
C       -2.43055663       2.68615078      10.00000000       0.00004279       0.00764542      -0.00023662
C       -2.47816054       4.08081684      10.00000000      -0.07921172       0.01111544       0.00265814
C       -1.24980115       4.73157830      10.00000000       0.11037993       0.03279641      -0.00510041
N       -1.23757445       6.11658101      10.00000000      -1.09849216      -0.18187807      -0.63898083
N        0.11440283       8.45981585      10.00000000      -0.31245755       0.72372269      -0.36255136
C        1.30792642       9.16224746      10.00000000       0.01268368      -0.08014515       0.02149308
C        1.25803020      10.55216557      10.00000000      -0.06819855       0.03753775       0.00010271
C        0.03720704       2.62807678      10.00000000       0.06442633      -0.04699825       0.00017381
C       -0.01311689       4.01783507      10.00000000      -0.04130333       0.07688491       0.02146402
N        1.17960686       4.71982639      10.00000000       0.36560460      -0.69566430      -0.36261853
N        2.53175081       7.06378150      10.00000000       1.12523889       0.16485635      -0.63907691
C        2.54438514       8.44872938      10.00000000      -0.09818549      -0.04113635      -0.00519610
C        3.77341498       9.09884503      10.00000000       0.06751783       0.00009509       0.00274131
C        3.72607066      10.49363473      10.00000000      -0.00522862      -0.01094963      -0.00020585
C        2.48403183       2.67372211      10.00000000       0.09290999      -0.06227913       0.03909932
C        2.41500233       4.10756281      10.00000000      -0.24517281       0.07676374      -0.07364169
C        3.63739856       4.86418701      10.00000000       0.10123393      -0.06344475       0.03010060
C        3.68067784       6.30038185      10.00000000      -0.19615472       0.16613630      -0.10432455
C        4.95710118       6.95791183      10.00000000       0.12097560      -0.05924225       0.05481871
C        4.99842492       8.37232189      10.00000000      -0.05871932       0.03831779      -0.00629061
C        6.25024099       9.03652569      10.00000000       0.03885338      -0.03640513       0.00649037
C        6.19948042      10.45238139      10.00000000      -0.07612456       0.04405410      -0.00497750
Pt       0.64722720       6.58994552      10.00000000      -0.00254721      -0.00052840      -0.95495408
H        0.09722720       6.58994552      11.80000000       3.22722122       0.04142558       1.51098728
H        1.19722720       6.58994552      11.80000000      -3.22718074      -0.04168829       1.51081269
33
Lattice="9.84 0.0 0.0 4.92 8.521689973238876 0.0 0.0 0.0 20.0" Properties=species:S:1:pos:R:3:forces:R:3 energy=-269.0500955011198 pbc="T T F"
C       -4.90407279       2.72825394      10.00000000      -0.35547331      -0.31891948      -0.00350200
C       -4.95509823       4.14406101      10.00000000      -0.02942331       0.37360480      -0.00287022
C       -3.70324291       4.80768718      10.00000000      -0.00387116       0.23003771      -0.00278508
C       -3.66224620       6.22199923      10.00000000      -0.20882722       0.09389253      -0.02863675
C       -2.38584244       6.87990464      10.00000000      -0.86149196       0.81922994       0.05007292
C       -2.34260280       8.31639578      10.00000000      -0.43168986       0.06818188       0.00335924
C       -1.12011677       9.07272175      10.00000000      -0.12340503       0.39886268       0.04994624
C       -1.18885840      10.50678026      10.00000000      -0.00118707       0.02931355       0.01484040
C       -2.43055663       2.68615078      10.00000000      -0.23015438       0.04348694       0.00853948
C       -2.47816054       4.08081684      10.00000000      -0.19601157      -0.21688717       0.11095789
C       -1.24980115       4.73157830      10.00000000      -0.96538102       0.27381785       0.05128563
C       -1.23757445       6.11658101      10.00000000       0.61205229      -1.04278751      -0.79774385
N        0.11440283       8.45981585      10.00000000       0.42595140       2.06408692      -0.70115485
C        1.30792642       9.16224746      10.00000000      -2.06399754       0.07681744      -0.00441170
C        1.25803020      10.55216557      10.00000000       0.09273715       0.24917138       0.02685728
C        0.03720704       2.62807678      10.00000000      -0.06610216      -0.25868691       0.11124140
C       -0.01311689       4.01783507      10.00000000       0.68012993      -0.74761256       0.05147627
C        1.17960686       4.71982639      10.00000000      -1.17891811       0.06443889      -0.79582322
N        2.53175081       7.06378150      10.00000000       1.63913807       1.37650861      -0.70318736
C        2.54438514       8.44872938      10.00000000       1.07419498      -1.78450353      -0.00434314
C        3.77341498       9.09884503      10.00000000       0.17162033       0.25488106       0.02685350
C        3.72607066      10.49363473      10.00000000       0.14195358      -0.19192099       0.00855226
C        2.48403183       2.67372211      10.00000000       0.15736754      -0.14365538      -0.02893656
C        2.41500233       4.10756281      10.00000000       1.15250438      -0.31216396       0.04974114
C        3.63739856       4.86418701      10.00000000       0.26402893      -0.37346388       0.00351607
C        3.68067784       6.30038185      10.00000000       0.38218648       0.13472364       0.04986774
C        4.95710118       6.95791183      10.00000000       0.04459570      -0.01652589       0.01477313
C        4.99842492       8.37232189      10.00000000      -0.08388909      -0.45093211      -0.00348605
C        6.25024099       9.03652569      10.00000000       0.33074833       0.15684659      -0.00290618
C        6.19948042      10.45238139      10.00000000       0.19519180       0.11789841      -0.00280300
Pt       0.64722720       6.58994552      10.00000000      -0.51313756      -0.88601563      -5.92478010
H        0.64722720       6.58994552      11.40000000      -0.03023815      -0.05230812       4.34901518
H        0.64722720       6.58994552      12.14000000      -0.01480722      -0.02569745       4.01696749
33
Lattice="9.84 0.0 0.0 4.92 8.521689973238876 0.0 0.0 0.0 20.0" Properties=species:S:1:pos:R:3:forces:R:3 energy=-272.2806688350188 pbc="T T F"
C       -4.90407279       2.72825394      10.00000000      -0.36447199      -0.19575387      -0.00052186
C       -4.95509823       4.14406101      10.00000000       0.06070887       0.14066622      -0.00209896
C       -3.70324291       4.80768718      10.00000000      -0.00703835       0.29279887      -0.00231316
C       -3.66224620       6.22199923      10.00000000      -0.07813034       0.18315635       0.00841906
C       -2.38584244       6.87990464      10.00000000      -1.29025671       0.96202007       0.03716332
C       -2.34260280       8.31639578      10.00000000      -0.51692383       0.31971844      -0.01453132
C       -1.12011677       9.07272175      10.00000000      -1.41395490       0.85620330       0.04014895
C       -1.18885840      10.50678026      10.00000000      -0.34377292      -0.11488459      -0.00004811
C       -2.43055663       2.68615078      10.00000000      -0.20534882       0.13000144       0.00198787
C       -2.47816054       4.08081684      10.00000000      -0.22567016      -0.27012795       0.04292926
C       -1.24980115       4.73157830      10.00000000      -0.83011333      -0.38853826       0.01947487
C       -1.23757445       6.11658101      10.00000000       1.34063804      -0.22185739      -0.48716102
C        0.11440283       8.45981585      10.00000000       0.42875068      -0.63345415      -0.36961580
C        1.30792642       9.16224746      10.00000000      -0.29271995       0.47273617       0.01057251
C        1.25803020      10.55216557      10.00000000       0.33142516       0.31295742       0.00828059
C        0.03720704       2.62807678      10.00000000      -0.18843503      -0.31106243       0.03311842
C       -0.01311689       4.01783507      10.00000000       0.07473784      -0.98666121       0.02106222
C        1.17960686       4.71982639      10.00000000      -0.55708178       0.47143975      -0.38787853
N        2.53175081       7.06378150      10.00000000       1.42108894       1.15840086      -0.42838601
C        2.54438514       8.44872938      10.00000000       1.24480883      -0.99808400      -0.01921642
C        3.77341498       9.09884503      10.00000000       0.22488603       0.00782750       0.02564891
C        3.72607066      10.49363473      10.00000000      -0.05044512      -0.06247102       0.00480020
C        2.48403183       2.67372211      10.00000000       0.45117925       0.13118370      -0.00844878
C        2.41500233       4.10756281      10.00000000       1.42748635      -0.82698594       0.02868343
C        3.63739856       4.86418701      10.00000000       0.08298335      -0.42429889      -0.00199173
C        3.68067784       6.30038185      10.00000000       0.39126603       0.37879454      -0.00150748
C        4.95710118       6.95791183      10.00000000      -0.03939423      -0.06525097       0.01015663
C        4.99842492       8.37232189      10.00000000      -0.04499257      -0.49794663      -0.00193368
C        6.25024099       9.03652569      10.00000000       0.07641439       0.07171990      -0.00165570
C        6.19948042      10.45238139      10.00000000       0.31191486       0.14815518       0.00050465
Pt       0.64722720       6.58994552      10.00000000      -1.40616424      -0.01857256       0.73697965
H        0.09722720       6.58994552      12.20000000       4.02236704       0.03206947       0.28917102
H        1.19722720       6.58994552      12.20000000      -4.02945186      -0.05509050       0.40579601
33
Lattice="9.84 0.0 0.0 4.92 8.521689973238876 0.0 0.0 0.0 20.0" Properties=species:S:1:pos:R:3:forces:R:3 energy=-269.8016687184105 pbc="T T F"
C       -4.90407279       2.72825394      10.00000000      -0.37996803      -0.32593611      -0.00365977
C       -4.95509823       4.14406101      10.00000000      -0.02065140       0.37701742      -0.00158361
C       -3.70324291       4.80768718      10.00000000      -0.02613327       0.23352943      -0.00316099
C       -3.66224620       6.22199923      10.00000000      -0.18387589       0.15832637      -0.01177265
C       -2.38584244       6.87990464      10.00000000      -1.00979691       0.77761456       0.02093235
C       -2.34260280       8.31639578      10.00000000      -0.45631677       0.00271823       0.00684334
C       -1.12011677       9.07272175      10.00000000       0.00276158       0.47061283       0.02233484
C       -1.18885840      10.50678026      10.00000000      -0.02743245       0.01432677       0.00875324
C       -2.43055663       2.68615078      10.00000000      -0.27526359       0.07955854       0.00385442
C       -2.47816054       4.08081684      10.00000000      -0.22804924      -0.26465054       0.06911772
C       -1.24980115       4.73157830      10.00000000      -1.08380917       0.37745876       0.03403686
C       -1.23757445       6.11658101      10.00000000       0.84372237      -0.98369301      -0.60982191
N        0.11440283       8.45981585      10.00000000       0.56217654       1.77525375      -0.48704445
C        1.30792642       9.16224746      10.00000000      -2.28950825       0.09244753       0.01503805
C        1.25803020      10.55216557      10.00000000       0.09843268       0.26401649       0.01452469
C        0.03720704       2.62807678      10.00000000      -0.09557492      -0.32162425       0.07503153
C       -0.01311689       4.01783507      10.00000000       0.84773114      -0.77377486       0.04684837
C        1.17960686       4.71982639      10.00000000      -1.25607036       0.39664803      -0.56828207
N        2.53175081       7.06378150      10.00000000       1.41307139       1.41127415      -0.56662079
C        2.54438514       8.44872938      10.00000000       1.19531960      -1.95066272      -0.00764872
C        3.77341498       9.09884503      10.00000000       0.17492930       0.26017382       0.01647421
C        3.72607066      10.49363473      10.00000000       0.19410434      -0.20781858       0.00422648
C        2.48403183       2.67372211      10.00000000       0.20987471      -0.08492317      -0.01143987
C        2.41500233       4.10756281      10.00000000       1.15035005      -0.45698447       0.02325302
C        3.63739856       4.86418701      10.00000000       0.23187704      -0.40586093       0.00514628
C        3.68067784       6.30038185      10.00000000       0.40099848       0.22466778       0.00733795
C        4.95710118       6.95791183      10.00000000       0.03888751      -0.03417106       0.01119878
C        4.99842492       8.37232189      10.00000000      -0.07118535      -0.48290160      -0.00326749
C        6.25024099       9.03652569      10.00000000       0.32812359       0.16650818      -0.00228943
C        6.19948042      10.45238139      10.00000000       0.20967991       0.10234037      -0.00346122
Pt       0.64722720       6.58994552      10.00000000      -0.45889460      -0.84966087       1.38532921
H        0.09722720       6.58994552      12.20000000       3.93980645       0.01449787       0.20753070
H        1.19722720       6.58994552      12.20000000      -3.97348430      -0.05335110       0.29691805
32
Lattice="9.84 0.0 0.0 4.92 8.521689973238876 0.0 0.0 0.0 20.0" Properties=species:S:1:pos:R:3:forces:R:3 energy=-258.67950238614054 pbc="T T F"
C       -4.90407279       2.72825394      10.00000000      -0.58071344      -0.40890928      -0.00134597
C       -4.95509823       4.14406101      10.00000000       0.80981564       0.34909428       0.07727558
C       -3.70324291       4.80768718      10.00000000      -0.15241759       0.36881343      -0.00826589
C       -3.66224620       6.22199923      10.00000000       0.27822008      -0.11246523      -0.00481701
C       -2.38584244       6.87990464      10.00000000      -1.07395815       1.47325114       0.07728996
C       -2.34260280       8.31639578      10.00000000      -0.23551904       0.31437058      -0.05893816
C       -1.12011677       9.07272175      10.00000000      -0.28340288       0.32995019       0.03533910
C       -1.18885840      10.50678026      10.00000000      -0.16513608      -0.17833958       0.01947645
C       -2.43055663       2.68615078      10.00000000       0.02853915      -0.26094709       0.01500263
C       -2.47816054       4.08081684      10.00000000      -0.02906639       0.10759149       0.05924209
C       -1.24980115       4.73157830      10.00000000      -0.19630420      -0.87305722      -0.00227260
C       -1.23757445       6.11658101      10.00000000       1.00309520      -0.95678572      -0.78559987
N        0.11440283       8.45981585      10.00000000      -0.78490652       1.53833597      -0.55873636
C        1.30792642       9.16224746      10.00000000      -0.36800481      -1.45787904      -0.03741091
C        1.25803020      10.55216557      10.00000000       0.37032061       0.78295213      -0.04544589
C        0.03720704       2.62807678      10.00000000      -0.04371593      -0.41595468       0.12615149
C       -0.01311689       4.01783507      10.00000000      -0.14567609      -0.64694826       0.03891397
C        1.17960686       4.71982639      10.00000000      -0.36886131       0.31017275      -0.62049973
C        2.54438514       8.44872938      10.00000000      -0.65638017      -0.73320860      -0.03166742
C        3.77341498       9.09884503      10.00000000      -0.72535986      -1.82409399       0.03218739
C        3.72607066      10.49363473      10.00000000      -0.21325311       0.26835166       0.01199959
C        2.48403183       2.67372211      10.00000000       0.04717326      -0.15890553      -0.01471543
C        2.41500233       4.10756281      10.00000000       0.73137775      -0.61612151      -0.06094949
C        3.63739856       4.86418701      10.00000000      -0.83267295       1.53508877      -0.00468639
C        3.68067784       6.30038185      10.00000000       1.76623555      -0.55086689      -0.21308032
C        4.95710118       6.95791183      10.00000000      -1.97732941      -0.16681441       0.04093864
C        4.99842492       8.37232189      10.00000000       0.78016476       0.17164040      -0.01603309
C        6.25024099       9.03652569      10.00000000      -0.15659727      -0.06514465       0.00445231
C        6.19948042      10.45238139      10.00000000       0.24148968       0.17344700       0.00449604
Pt       0.64722720       6.58994552      10.00000000       2.22359127       1.66077188       4.15092871
H       -0.25277280       6.58994552      11.80000000       2.07545864      -0.03604774      -1.40884302
H        1.54722720       6.58994552      11.80000000      -1.35991478       0.07917834      -0.83727203
31
Lattice="9.84 0.0 0.0 4.92 8.521689973238876 0.0 0.0 0.0 20.0" Properties=species:S:1:pos:R:3:forces:R:3 energy=-263.1139974135104 pbc="T T F"
C       -4.88917137       2.72410601      10.01943066      -1.11928320      -0.21330070      -0.85078474
C       -4.90940733       4.13703641       9.99297589      -1.71351887       1.64018808      -0.39984451
C       -3.65586653       4.83071022       9.98591577      -1.64401967      -2.38294724       0.03585005
C       -3.64596940       6.20809670       9.98602811      -0.54606341       0.16061031      -0.18040088
C       -2.37858357       6.82250623       9.94825247      -2.68879063       4.41076032       0.50267033
C       -2.35947143       8.28601085      10.00942742      -0.38758641      -0.13355073      -0.02915344
C       -1.14735749       9.03035264      10.04396946       0.08180387       1.84595099      -1.11005581
C       -1.19563169      10.50880611       9.95725755      -0.10288760      -0.72935905       1.16694675
C       -2.44688811       2.68947846       9.96547019      -0.01545082      -0.01544963       0.42361675
C       -2.46688960       4.06279768       9.99124919      -0.04749579       2.28779805      -0.06748155
C       -1.26785235       4.78714665       9.99959508       0.38348123      -2.57407395      -0.13841438
N       -1.26930578       6.14125736       9.96337469       3.11855719      -2.96511387       0.20123085
C        0.12066874       8.40102575       9.96015442       0.47145208       3.42551925       0.66843168
C        1.31383226       9.18440146      10.00514105      -2.13590652      -2.04538018      -0.27030920
C        1.25456075      10.54313246       9.95564434       0.20873772       1.33723421       0.58876609
C        0.01561171       2.61425762      10.03171367       0.69319229      -1.84540891       0.00545533
C       -0.00280834       3.96494387      10.00972252      -0.54872508       3.93121071       0.14426941
C        1.16805439       4.69951873      10.01835029      -1.02159934       0.81413724       0.11395749
N        2.56268080       7.09171990       9.97482347      -0.83798809       0.89776912       0.38391217
C        2.53510877       8.45866728      10.02926635       1.87330820      -1.56617983      -0.72306883
C        3.75903975       9.09327526       9.96680995       0.91337589       2.03185008       0.82542423
C        3.69018446      10.51801050      10.04068720       1.15154091      -2.46213375      -0.79629494
C        2.48187153       2.70382810      10.01084908       0.40517634      -1.75546153      -0.06335090
C        2.39564874       4.11840468      10.04614110       2.67650413       0.01247097      -0.93046895
C        3.63632378       4.91112632       9.92140765       0.93821505      -3.53611011       1.29552824
C        3.70533492       6.30299326       9.99102978      -0.88496563       0.50819609      -0.39802749
C        4.95985400       6.89828476       9.99340984       1.28850604       4.44524261      -0.05599213
C        5.00913830       8.41665871       9.98445189      -2.45439817      -4.69212964       0.05652922
C        6.22598618       9.02147298      10.02746206       2.54129583       0.90572013      -0.30390774
C        6.20934295      10.43648858      10.01539802      -0.50740718       1.17480154       0.27864789
Pt       0.65013953       6.61900487       9.97893841      -0.08592406      -2.91353325      -0.21140509
30
Lattice="9.84 0.0 0.0 4.92 8.521689973238876 0.0 0.0 0.0 20.0" Properties=species:S:1:pos:R:3:forces:R:3 energy=-252.05133498515468 pbc="T T F"
C       -4.90407279       2.72825394      10.00000000      -0.53966699      -0.41667293       0.00000000
C       -4.95509823       4.14406101      10.00000000       0.76403192       0.28714006       0.00000000
C       -3.70324291       4.80768718      10.00000000      -0.11037739       0.44328586       0.00000000
C       -3.66224620       6.22199923      10.00000000       0.41441868      -0.24846274       0.00000000
C       -2.38584244       6.87990464      10.00000000      -0.12254984       0.53386106       0.00000000
C       -2.34260280       8.31639578      10.00000000       0.06635639       0.02207424       0.00000000
C       -1.12011677       9.07272175      10.00000000       0.23225319       0.19242089       0.00000000
C       -1.18885840      10.50678026      10.00000000      -0.29236318      -0.19826585       0.00000000
C       -2.43055663       2.68615078      10.00000000       0.23841960      -0.31000958       0.00000000
C       -2.47816054       4.08081684      10.00000000      -0.05360518       0.39632888       0.00000000
C       -1.24980115       4.73157830      10.00000000      -0.49855190       0.28889050       0.00000000
N       -1.23757445       6.11658101      10.00000000       0.61119266      -1.28538291       0.00000000
N        0.11440283       8.45981585      10.00000000      -0.95772278       1.35441124       0.00000000
C        1.30792642       9.16224746      10.00000000      -0.20315274      -1.65334060       0.00000000
C        1.25803020      10.55216557      10.00000000       0.33569282       0.84970652       0.00000000
C        0.03720704       2.62807678      10.00000000      -0.25198609      -0.41719193       0.00000000
C       -0.01311689       4.01783507      10.00000000      -0.17956057      -0.24890018       0.00000000
C        1.17960686       4.71982639      10.00000000      -0.36921129       1.21880287       0.00000000
C        2.54438514       8.44872938      10.00000000      -0.95100454      -0.82032306       0.00000000
C        3.77341498       9.09884503      10.00000000      -0.79715124      -1.90470301       0.00000000
C        3.72607066      10.49363473      10.00000000      -0.11691207       0.15972680       0.00000000
C        2.48403183       2.67372211      10.00000000       0.13391982      -0.13676787       0.00000000
C        2.41500233       4.10756281      10.00000000       0.67082198      -0.75496442       0.00000000
C        3.63739856       4.86418701      10.00000000      -0.72279143       1.73000646       0.00000000
C        3.68067784       6.30038185      10.00000000       1.46292602      -0.63027327       0.00000000
C        4.95710118       6.95791183      10.00000000      -1.90166606      -0.01350229       0.00000000
C        4.99842492       8.37232189      10.00000000       0.81841458       0.31640105       0.00000000
C        6.25024099       9.03652569      10.00000000      -0.30088769      -0.28114840       0.00000000
C        6.19948042      10.45238139      10.00000000       0.20046800       0.16421916       0.00000000
Pt       0.64722720       6.58994552      10.00000000       2.42646181       1.36516283       0.00000000
33
Lattice="9.84 0.0 0.0 4.92 8.521689973238876 0.0 0.0 0.0 20.0" Properties=species:S:1:pos:R:3:forces:R:3 energy=-268.6593578108907 pbc="T T F"
C       -4.90407279       2.72825394      10.00000000      -0.12790847      -0.13243806      -0.00059457
C       -4.95509823       4.14406101      10.00000000      -0.22614134      -0.09358285      -0.00010991
C       -3.70324291       4.80768718      10.00000000       0.09451197       0.19639092      -0.00056438
C       -3.66224620       6.22199923      10.00000000      -0.00299561       0.28667313       0.00080676
C       -2.38584244       6.87990464      10.00000000      -0.22757090      -0.46680933      -0.00315175
C       -2.34260280       8.31639578      10.00000000       0.04608188       0.08189671       0.00223141
C       -1.12011677       9.07272175      10.00000000       0.05326989       0.12120108      -0.00245858
C       -1.18885840      10.50678026      10.00000000       0.04225478      -0.01394248       0.00117303
C       -2.43055663       2.68615078      10.00000000      -0.01635937       0.02462538      -0.00034594
C       -2.47816054       4.08081684      10.00000000      -0.22137705      -0.14352244      -0.00022123
C       -1.24980115       4.73157830      10.00000000      -0.57441333       1.03868088       0.00207683
N       -1.23757445       6.11658101      10.00000000      -1.30781258      -0.60226809      -0.00932342
N        0.11440283       8.45981585      10.00000000       0.61048643       0.77078584      -0.01193795
C        1.30792642       9.16224746      10.00000000      -0.99479870       0.50905178       0.00181790
C        1.25803020      10.55216557      10.00000000      -0.21649771       0.07625948       0.00121141
C        0.03720704       2.62807678      10.00000000      -0.01402032      -0.08691538       0.00057819
C       -0.01311689       4.01783507      10.00000000       1.09234172      -0.06687171       0.00202072
N        1.17960686       4.71982639      10.00000000      -0.55219465      -0.06811998      -0.01210610
C        2.53175081       7.06378150      10.00000000      -1.42797051       0.16233518      -0.01714275
C        2.54438514       8.44872938      10.00000000       0.21164211       0.00272592       0.00233170
C        3.77341498       9.09884503      10.00000000       0.08443840       0.42710939       0.00077320
C        3.72607066      10.49363473      10.00000000       0.26916004      -0.09232165      -0.00015112
C        2.48403183       2.67372211      10.00000000      -0.06072929       0.08032438       0.00103537
C        2.41500233       4.10756281      10.00000000       0.31351693      -0.25264313      -0.00170562
C        3.63739856       4.86418701      10.00000000       0.34196608      -0.31996575       0.00165385
C        3.68067784       6.30038185      10.00000000       0.93940225      -0.70034790      -0.00066653
C        4.95710118       6.95791183      10.00000000       0.18653920      -0.20956417       0.00110152
C        4.99842492       8.37232189      10.00000000       0.04289040      -0.15607879      -0.00034138
C        6.25024099       9.03652569      10.00000000       0.03348093      -0.11041359       0.00002169
C        6.19948042      10.45238139      10.00000000       0.13627528       0.10397307      -0.00073922
Pt       0.64722720       6.58994552      10.00000000       1.48019771      -0.36530687      -0.08451650
H        0.27722720       6.58994552      13.20000000      -0.49319908       0.00077644       0.07111614
H        1.01722720       6.58994552      13.20000000       0.49020711      -0.00086540       0.05596418
33
Lattice="9.84 0.0 0.0 4.92 8.521689973238876 0.0 0.0 0.0 20.0" Properties=species:S:1:pos:R:3:forces:R:3 energy=-271.24927169998296 pbc="T T F"
C       -4.90407279       2.72825394      10.00000000      -0.38476550      -0.32019825      -0.00007559
C       -4.95509823       4.14406101      10.00000000      -0.01911321       0.35786447      -0.00011966
C       -3.70324291       4.80768718      10.00000000      -0.01756529       0.24148677       0.00009031
C       -3.66224620       6.22199923      10.00000000      -0.16916984       0.20058388      -0.00012669
C       -2.38584244       6.87990464      10.00000000      -1.02422245       0.74139247       0.00025612
C       -2.34260280       8.31639578      10.00000000      -0.45413355       0.00876711       0.00009174
C       -1.12011677       9.07272175      10.00000000       0.03620023       0.49590073       0.00000585
C       -1.18885840      10.50678026      10.00000000      -0.04287367      -0.01418455       0.00004647
C       -2.43055663       2.68615078      10.00000000      -0.27727378       0.09732504      -0.00006358
C       -2.47816054       4.08081684      10.00000000      -0.27264291      -0.30292497       0.00033364
C       -1.24980115       4.73157830      10.00000000      -1.10312131       0.43935764       0.00072412
C       -1.23757445       6.11658101      10.00000000       1.14249866      -0.80145806      -0.00186309
N        0.11440283       8.45981585      10.00000000       0.54815942       1.56006209      -0.00046625
C        1.30792642       9.16224746      10.00000000      -2.29344003       0.11068071       0.00042687
C        1.25803020      10.55216557      10.00000000       0.08560825       0.25725962      -0.00004972
C        0.03720704       2.62807678      10.00000000      -0.10228722      -0.36793410       0.00037339
C       -0.01311689       4.01783507      10.00000000       0.89371047      -0.78408363       0.00027284
C        1.17960686       4.71982639      10.00000000      -1.23521159       0.64313904      -0.00218343
N        2.53175081       7.06378150      10.00000000       1.13845730       1.22957206      -0.00010553
C        2.54438514       8.44872938      10.00000000       1.21767105      -1.96398046       0.00042419
C        3.77341498       9.09884503      10.00000000       0.18191355       0.25326819       0.00000869
C        3.72607066      10.49363473      10.00000000       0.21279080      -0.20530515      -0.00000359
C        2.48403183       2.67372211      10.00000000       0.23020384      -0.05572639      -0.00005971
C        2.41500233       4.10756281      10.00000000       1.16628138      -0.49211453       0.00015383
C        3.63739856       4.86418701      10.00000000       0.22246428      -0.42374053       0.00010517
C        3.68067784       6.30038185      10.00000000       0.38720855       0.31976164      -0.00054336
C        4.95710118       6.95791183      10.00000000       0.02772124      -0.07376823      -0.00004054
C        4.99842492       8.37232189      10.00000000      -0.07032928      -0.47704906       0.00003001
C        6.25024099       9.03652569      10.00000000       0.31291035       0.15908300      -0.00016987
C        6.19948042      10.45238139      10.00000000       0.21224277       0.11155118       0.00004141
Pt       0.64722720       6.58994552      10.00000000      -0.53704493      -0.92916137      -0.00028544
H        0.27722720       6.58994552      14.00000000      -0.50480619       0.00065004       0.00044505
H        1.01722720       6.58994552      14.00000000       0.50418446      -0.00186647       0.00656051
33
Lattice="9.84 0.0 0.0 4.92 8.521689973238876 0.0 0.0 0.0 20.0" Properties=species:S:1:pos:R:3:forces:R:3 energy=-275.9126045687781 pbc="T T F"
C       -4.90407279       2.72825394      10.00000000      -0.43785322      -0.20073941      -0.00043835
C       -4.95509823       4.14406101      10.00000000       0.15108370      -0.08947550      -0.00084012
C       -3.70324291       4.80768718      10.00000000      -0.05644697       0.46374587      -0.00036249
C       -3.66224620       6.22199923      10.00000000      -0.09295949       0.41345560       0.00070381
C       -2.38584244       6.87990464      10.00000000      -1.40944637       0.78677058       0.00714031
C       -2.34260280       8.31639578      10.00000000      -0.41232025       0.25675830      -0.00377154
C       -1.12011677       9.07272175      10.00000000      -1.41356824       0.81636750       0.00674342
C       -1.18885840      10.50678026      10.00000000      -0.36588112      -0.12067249       0.00158324
C       -2.43055663       2.68615078      10.00000000       0.02163371      -0.00617384       0.00101336
C       -2.47816054       4.08081684      10.00000000      -0.20357570      -0.29615072       0.00642407
C       -1.24980115       4.73157830      10.00000000      -0.65487989      -0.80938918      -0.00110291
C       -1.23757445       6.11658101      10.00000000       0.79904211       0.33069130      -0.10521012
C        0.11440283       8.45981585      10.00000000       0.14163667      -0.89872467      -0.09831154
C        1.30792642       9.16224746      10.00000000       0.37825707       1.01391013       0.00105488
C        1.25803020      10.55216557      10.00000000       0.12883222       0.29339042       0.00569646
C        0.03720704       2.62807678      10.00000000      -0.13251244      -0.30281593       0.00571510
C       -0.01311689       4.01783507      10.00000000      -0.40955049      -1.01832070       0.00104976
C        1.17960686       4.71982639      10.00000000      -0.08317057       0.92134078      -0.09832017
C        2.53175081       7.06378150      10.00000000      -0.77391304      -0.34647272      -0.10524611
C        2.54438514       8.44872938      10.00000000       0.66880956       0.80217780      -0.00108968
C        3.77341498       9.09884503      10.00000000       0.19092412       0.30873226       0.00640775
C        3.72607066      10.49363473      10.00000000      -0.02550470       0.00183973       0.00102370
C        2.48403183       2.67372211      10.00000000       0.37755637       0.11907897       0.00158265
C        2.41500233       4.10756281      10.00000000       1.39702881      -0.80268333       0.00674653
C        3.63739856       4.86418701      10.00000000       0.41477224      -0.26756923      -0.00376821
C        3.68067784       6.30038185      10.00000000       1.38697635      -0.77267600       0.00715578
C        4.95710118       6.95791183      10.00000000       0.09924277      -0.40450307       0.00069449
C        4.99842492       8.37232189      10.00000000       0.05983812      -0.46486736      -0.00034458
C        6.25024099       9.03652569      10.00000000      -0.15945095       0.08388995      -0.00083575
C        6.19948042      10.45238139      10.00000000       0.42504045       0.18836034      -0.00044236
Pt       0.64722720       6.58994552      10.00000000      -0.00217482       0.00062530      -0.18634916
H        0.27722720       6.58994552      12.60000000      -0.54543133       0.00454776       0.27067258
H        1.01722720       6.58994552      12.60000000       0.54545997      -0.00456690       0.27067271
33
Lattice="9.84 0.0 0.0 4.92 8.521689973238876 0.0 0.0 0.0 20.0" Properties=species:S:1:pos:R:3:forces:R:3 energy=-270.17539217218626 pbc="T T F"
C       -4.90407279       2.72825394      10.00000000      -0.32015867      -0.29311247      -0.00612770
C       -4.95509823       4.14406101      10.00000000      -0.02230799       0.36013147      -0.00293217
C       -3.70324291       4.80768718      10.00000000      -0.01081836       0.22013090      -0.00503072
C       -3.66224620       6.22199923      10.00000000      -0.20811940       0.07578719      -0.03840559
C       -2.38584244       6.87990464      10.00000000      -0.86559916       0.85489564       0.05923594
C       -2.34260280       8.31639578      10.00000000      -0.41728328       0.09941411       0.01368944
C       -1.12011677       9.07272175      10.00000000      -0.16831190       0.41547457       0.06530846
C       -1.18885840      10.50678026      10.00000000      -0.01581470       0.00603443       0.01666009
C       -2.43055663       2.68615078      10.00000000      -0.22806613       0.03010747       0.00692550
C       -2.47816054       4.08081684      10.00000000      -0.16361120      -0.19180379       0.12505205
C       -1.24980115       4.73157830      10.00000000      -0.91565602       0.14974965       0.07115986
C       -1.23757445       6.11658101      10.00000000       0.49027758      -1.06000684      -1.04512317
N        0.11440283       8.45981585      10.00000000       0.37651890       1.96319216      -0.89100808
C        1.30792642       9.16224746      10.00000000      -1.87175600       0.06564891       0.01560698
C        1.25803020      10.55216557      10.00000000       0.08651186       0.25107756       0.03074433
C        0.03720704       2.62807678      10.00000000      -0.06537578      -0.23102425       0.12789751
C       -0.01311689       4.01783507      10.00000000       0.56288604      -0.74626724       0.08257431
C        1.17960686       4.71982639      10.00000000      -1.13786603       0.09599940      -0.95776232
N        2.53175081       7.06378150      10.00000000       1.68420557       1.36995679      -1.02888025
C        2.54438514       8.44872938      10.00000000       0.96196798      -1.60047182      -0.00535480
C        3.77341498       9.09884503      10.00000000       0.16582310       0.24004912       0.03792177
C        3.72607066      10.49363473      10.00000000       0.12699944      -0.19296179       0.00774728
C        2.48403183       2.67372211      10.00000000       0.15385398      -0.14704739      -0.03862830
C        2.41500233       4.10756281      10.00000000       1.12639216      -0.30131132       0.05835186
C        3.63739856       4.86418701      10.00000000       0.30670201      -0.30269374       0.01149440
C        3.68067784       6.30038185      10.00000000       0.45096389       0.01950326       0.05288737
C        4.95710118       6.95791183      10.00000000       0.02026372      -0.02371657       0.02225851
C        4.99842492       8.37232189      10.00000000      -0.06894198      -0.41504028      -0.00595709
C        6.25024099       9.03652569      10.00000000       0.31024506       0.15237709      -0.00402908
C        6.19948042      10.45238139      10.00000000       0.19060703       0.10790666      -0.00517186
Pt       0.64722720       6.58994552      10.00000000      -0.41069255      -0.83125123       1.86244287
H        0.22222720       6.58994552      11.80000000       0.37992744      -0.00222057       0.65293190
H        1.07222720       6.58994552      11.80000000      -0.49624504      -0.13331532       0.72231982
32
Lattice="9.84 0.0 0.0 4.92 8.521689973238876 0.0 0.0 0.0 20.0" Properties=species:S:1:pos:R:3:forces:R:3 energy=-260.5234081266525 pbc="T T F"
C       -4.90407279       2.72825394      10.00000000      -0.62579263      -0.42705358      -0.00153218
C       -4.95509823       4.14406101      10.00000000       0.80837212       0.37808420       0.01628130
C       -3.70324291       4.80768718      10.00000000      -0.17079740       0.41537188      -0.00245304
C       -3.66224620       6.22199923      10.00000000       0.26656960      -0.09102451       0.00826182
C       -2.38584244       6.87990464      10.00000000      -1.12638149       1.31126987       0.02287948
C       -2.34260280       8.31639578      10.00000000      -0.26557220       0.16400448      -0.00550865
C       -1.12011677       9.07272175      10.00000000      -0.03778697       0.48129965      -0.00062756
C       -1.18885840      10.50678026      10.00000000      -0.19140260      -0.17968095       0.00543097
C       -2.43055663       2.68615078      10.00000000      -0.01869369      -0.22339308       0.00618378
C       -2.47816054       4.08081684      10.00000000      -0.04631744       0.05811767       0.04274270
C       -1.24980115       4.73157830      10.00000000      -0.41031239      -0.54298063       0.00062602
C       -1.23757445       6.11658101      10.00000000       2.01602878      -0.80209045      -0.42619682
N        0.11440283       8.45981585      10.00000000      -0.70524661       1.16434354      -0.25134452
C        1.30792642       9.16224746      10.00000000      -0.59980167      -1.37925148      -0.01536775
C        1.25803020      10.55216557      10.00000000       0.36645095       0.82966008      -0.01018477
C        0.03720704       2.62807678      10.00000000      -0.08863967      -0.47335749       0.05199919
C       -0.01311689       4.01783507      10.00000000       0.00076746      -0.72876407       0.02128746
C        1.17960686       4.71982639      10.00000000      -0.30257923       0.75642417      -0.39212841
C        2.54438514       8.44872938      10.00000000      -0.59372066      -1.19023925       0.01465113
C        3.77341498       9.09884503      10.00000000      -0.73030613      -1.67712893       0.00462515
C        3.72607066      10.49363473      10.00000000      -0.17356451       0.24034314       0.00262009
C        2.48403183       2.67372211      10.00000000       0.13518536      -0.08315987       0.01696515
C        2.41500233       4.10756281      10.00000000       0.64173312      -0.77812374       0.00524606
C        3.63739856       4.86418701      10.00000000      -0.81024823       1.62097801      -0.01142423
C        3.68067784       6.30038185      10.00000000       1.64620221      -0.46615941      -0.03442491
C        4.95710118       6.95791183      10.00000000      -1.98687182      -0.24890409       0.00088948
C        4.99842492       8.37232189      10.00000000       0.76343869       0.08379054      -0.00603846
C        6.25024099       9.03652569      10.00000000      -0.18290409      -0.06141562      -0.00135946
C        6.19948042      10.45238139      10.00000000       0.28574680       0.20240075      -0.00157792
Pt       0.64722720       6.58994552      10.00000000       1.88182246       1.56946694       0.18076820
H        0.09722720       6.58994552      12.20000000       4.16044681       0.03566867       0.32411508
H        1.19722720       6.58994552      12.20000000      -3.90083775       0.04402891       0.43373339
32
Lattice="9.84 0.0 0.0 4.92 8.521689973238876 0.0 0.0 0.0 20.0" Properties=species:S:1:pos:R:3:forces:R:3 energy=-264.6924472417587 pbc="T T F"
C       -4.90407279       2.72825394      10.00000000      -0.65846216      -0.41307293       0.00008435
C       -4.95509823       4.14406101      10.00000000       0.88625159       0.32006880       0.00032452
C       -3.70324291       4.80768718      10.00000000      -0.18124621       0.47986241      -0.00014334
C       -3.66224620       6.22199923      10.00000000       0.30680605      -0.14746471       0.00083846
C       -2.38584244       6.87990464      10.00000000      -1.30841808       1.28346522       0.00124035
C       -2.34260280       8.31639578      10.00000000      -0.39673520       0.28202143      -0.00132989
C       -1.12011677       9.07272175      10.00000000      -1.50168593       0.84190203       0.00004824
C       -1.18885840      10.50678026      10.00000000      -0.47287113      -0.13805525       0.00028323
C       -2.43055663       2.68615078      10.00000000      -0.09895136      -0.13087206       0.00041224
C       -2.47816054       4.08081684      10.00000000      -0.05571073       0.11700663       0.00279444
C       -1.24980115       4.73157830      10.00000000      -0.55282324      -0.48829678      -0.00078204
C       -1.23757445       6.11658101      10.00000000       2.57057760      -0.26328753      -0.02138058
C        0.11440283       8.45981585      10.00000000      -0.50200455      -1.39936412      -0.01381788
C        1.30792642       9.16224746      10.00000000       0.65474893      -0.88576993      -0.00052717
C        1.25803020      10.55216557      10.00000000       0.69544175       1.10365010      -0.00054449
C        0.03720704       2.62807678      10.00000000      -0.09592085      -0.56952143       0.00317192
C       -0.01311689       4.01783507      10.00000000       0.16512811      -0.67130082      -0.00071160
C        1.17960686       4.71982639      10.00000000       0.41781512       0.22111335      -0.02165087
C        2.54438514       8.44872938      10.00000000      -0.25819366      -0.99139039      -0.00004025
C        3.77341498       9.09884503      10.00000000      -0.65041763      -1.71040731      -0.00034482
C        3.72607066      10.49363473      10.00000000      -0.37073220       0.38406031       0.00058172
C        2.48403183       2.67372211      10.00000000       0.31004877       0.04169290       0.00121929
C        2.41500233       4.10756281      10.00000000       0.40164917      -1.05242092       0.00002232
C        3.63739856       4.86418701      10.00000000      -0.83362875       1.66816110      -0.00168679
C        3.68067784       6.30038185      10.00000000       1.58901089      -0.52391893       0.00186169
C        4.95710118       6.95791183      10.00000000      -1.94781710      -0.27537234      -0.00030070
C        4.99842492       8.37232189      10.00000000       0.75931124      -0.19491832      -0.00070755
C        6.25024099       9.03652569      10.00000000      -0.32551417      -0.07643402      -0.00011827
C        6.19948042      10.45238139      10.00000000       0.47458022       0.29569245       0.00004798
Pt       0.64722720       6.58994552      10.00000000       0.97737827       2.89121662      -0.04964099
H        0.27722720       6.58994552      13.20000000      -0.49746351       0.00592651       0.04770049
H        1.01722720       6.58994552      13.20000000       0.50672401      -0.00284443       0.05383228
33
Lattice="9.84 0.0 0.0 4.92 8.521689973238876 0.0 0.0 0.0 20.0" Properties=species:S:1:pos:R:3:forces:R:3 energy=-273.79132823655146 pbc="T T F"
C       -4.90407279       2.72825394      10.00000000      -0.37072711      -0.20566593      -0.00012414
C       -4.95509823       4.14406101      10.00000000       0.04508892       0.14173750       0.00020436
C       -3.70324291       4.80768718      10.00000000       0.00469193       0.30475935      -0.00005654
C       -3.66224620       6.22199923      10.00000000      -0.07131382       0.20544959       0.00022155
C       -2.38584244       6.87990464      10.00000000      -1.27414985       0.91121099      -0.00005817
C       -2.34260280       8.31639578      10.00000000      -0.51805577       0.32216309      -0.00013580
C       -1.12011677       9.07272175      10.00000000      -1.37341939       0.86798606      -0.00009435
C       -1.18885840      10.50678026      10.00000000      -0.35007064      -0.12058743       0.00017115
C       -2.43055663       2.68615078      10.00000000      -0.23123168       0.14678648       0.00021485
C       -2.47816054       4.08081684      10.00000000      -0.25710798      -0.29185250       0.00011407
C       -1.24980115       4.73157830      10.00000000      -0.89541978      -0.23982135      -0.00084996
C       -1.23757445       6.11658101      10.00000000       1.56888814      -0.16356919      -0.00002801
C        0.11440283       8.45981585      10.00000000       0.46776737      -0.71533334      -0.00048340
C        1.30792642       9.16224746      10.00000000      -0.42751492       0.47796797      -0.00078787
C        1.25803020      10.55216557      10.00000000       0.33106048       0.33913269      -0.00014140
C        0.03720704       2.62807678      10.00000000      -0.18853662      -0.35603553      -0.00008855
C       -0.01311689       4.01783507      10.00000000       0.21914193      -0.97075710      -0.00104251
C        1.17960686       4.71982639      10.00000000      -0.57097008       0.57094891      -0.00052745
N        2.53175081       7.06378150      10.00000000       1.20009091       1.06030675      -0.00182454
C        2.54438514       8.44872938      10.00000000       1.28818931      -1.11673126      -0.00053080
C        3.77341498       9.09884503      10.00000000       0.23992847       0.01733813       0.00024996
C        3.72607066      10.49363473      10.00000000      -0.03639956      -0.06229466       0.00031331
C        2.48403183       2.67372211      10.00000000       0.45854157       0.13695420       0.00010360
C        2.41500233       4.10756281      10.00000000       1.39939973      -0.83422624      -0.00006112
C        3.63739856       4.86418701      10.00000000       0.08461809      -0.43950141      -0.00016036
C        3.68067784       6.30038185      10.00000000       0.37420958       0.42832855       0.00031192
C        4.95710118       6.95791183      10.00000000      -0.03847283      -0.08099127       0.00024692
C        4.99842492       8.37232189      10.00000000      -0.04651711      -0.52448212      -0.00003947
C        6.25024099       9.03652569      10.00000000       0.07894965       0.07004808       0.00016587
C        6.19948042      10.45238139      10.00000000       0.32908228       0.16556049       0.00003363
Pt       0.64722720       6.58994552      10.00000000      -1.42823404      -0.04258224       0.00735908
H        0.64722720       6.58994552      13.20000000      -0.00665138      -0.00239339      -0.57720743
H        0.64722720       6.58994552      13.94000000       0.00366777       0.00161308       0.57812216
33
Lattice="9.84 0.0 0.0 4.92 8.521689973238876 0.0 0.0 0.0 20.0" Properties=species:S:1:pos:R:3:forces:R:3 energy=-273.1819647507529 pbc="T T F"
C       -4.90407279       2.72825394      10.00000000      -0.36961145      -0.20399407      -0.00056515
C       -4.95509823       4.14406101      10.00000000       0.05816797       0.14042249      -0.00260241
C       -3.70324291       4.80768718      10.00000000       0.00133958       0.29822414      -0.00208367
C       -3.66224620       6.22199923      10.00000000      -0.07635528       0.19434932       0.00760400
C       -2.38584244       6.87990464      10.00000000      -1.26917936       0.94302479       0.02855088
C       -2.34260280       8.31639578      10.00000000      -0.51707308       0.31041962      -0.00904474
C       -1.12011677       9.07272175      10.00000000      -1.38633457       0.84758780       0.03040675
C       -1.18885840      10.50678026      10.00000000      -0.33894106      -0.11209349       0.00185931
C       -2.43055663       2.68615078      10.00000000      -0.20317088       0.13211282       0.00132585
C       -2.47816054       4.08081684      10.00000000      -0.24249602      -0.28043394       0.03844994
C       -1.24980115       4.73157830      10.00000000      -0.83623636      -0.34771045       0.01893189
C       -1.23757445       6.11658101      10.00000000       1.42141920      -0.18162687      -0.36667634
C        0.11440283       8.45981585      10.00000000       0.41339493      -0.58496891      -0.29251459
C        1.30792642       9.16224746      10.00000000      -0.33925457       0.48387543       0.00828666
C        1.25803020      10.55216557      10.00000000       0.32579681       0.31957021       0.00601562
C        0.03720704       2.62807678      10.00000000      -0.18636815      -0.32332944       0.02543774
C       -0.01311689       4.01783507      10.00000000       0.09751711      -0.99711890       0.01547110
C        1.17960686       4.71982639      10.00000000      -0.54622345       0.45789042      -0.31670087
N        2.53175081       7.06378150      10.00000000       1.37331759       1.10796951      -0.29308795
C        2.54438514       8.44872938      10.00000000       1.26268271      -1.05938799       0.00245173
C        3.77341498       9.09884503      10.00000000       0.23528532       0.01390299       0.01985137
C        3.72607066      10.49363473      10.00000000      -0.05130993      -0.06134241       0.00308578
C        2.48403183       2.67372211      10.00000000       0.45206162       0.13258002      -0.00391786
C        2.41500233       4.10756281      10.00000000       1.42962294      -0.82384461       0.02318730
C        3.63739856       4.86418701      10.00000000       0.07354216      -0.44221340      -0.00059585
C        3.68067784       6.30038185      10.00000000       0.35524545       0.42923877       0.01164191
C        4.95710118       6.95791183      10.00000000      -0.03218010      -0.06956386       0.00731231
C        4.99842492       8.37232189      10.00000000      -0.05274706      -0.50827731      -0.00181383
C        6.25024099       9.03652569      10.00000000       0.07548782       0.07393120      -0.00189026
C        6.19948042      10.45238139      10.00000000       0.31384321       0.15352074       0.00015715
Pt       0.64722720       6.58994552      10.00000000      -1.42579239      -0.03871603      -1.01113408
H        0.64722720       6.58994552      11.80000000      -0.03057080      -0.00913068      -0.24063474
H        0.64722720       6.58994552      12.54000000       0.02551512       0.00573310       2.28991679
33
Lattice="9.84 0.0 0.0 4.92 8.521689973238876 0.0 0.0 0.0 20.0" Properties=species:S:1:pos:R:3:forces:R:3 energy=-273.63981411634927 pbc="T T F"
C       -4.90407279       2.72825394      10.00000000      -0.37152601      -0.20513531      -0.00026542
C       -4.95509823       4.14406101      10.00000000       0.04855729       0.14165208      -0.00069650
C       -3.70324291       4.80768718      10.00000000       0.00347783       0.30339290      -0.00069966
C       -3.66224620       6.22199923      10.00000000      -0.07288720       0.20317812       0.00332841
C       -2.38584244       6.87990464      10.00000000      -1.27601618       0.92000710       0.00799554
C       -2.34260280       8.31639578      10.00000000      -0.51708731       0.31798399      -0.00338649
C       -1.12011677       9.07272175      10.00000000      -1.37859562       0.86334870       0.00788243
C       -1.18885840      10.50678026      10.00000000      -0.34698566      -0.11781797       0.00098256
C       -2.43055663       2.68615078      10.00000000      -0.22318350       0.14266475       0.00075559
C       -2.47816054       4.08081684      10.00000000      -0.25299331      -0.28958469       0.01292677
C       -1.24980115       4.73157830      10.00000000      -0.87854236      -0.27225636       0.00292677
C       -1.23757445       6.11658101      10.00000000       1.51791335      -0.17531857      -0.12305659
C        0.11440283       8.45981585      10.00000000       0.45349848      -0.66686128      -0.09689639
C        1.30792642       9.16224746      10.00000000      -0.40462951       0.48117747      -0.00004540
C        1.25803020      10.55216557      10.00000000       0.33000389       0.33252185       0.00135250
C        0.03720704       2.62807678      10.00000000      -0.18857729      -0.34623747       0.00934576
C       -0.01311689       4.01783507      10.00000000       0.18572773      -0.97904706       0.00063561
C        1.17960686       4.71982639      10.00000000      -0.56954611       0.52698941      -0.10964488
N        2.53175081       7.06378150      10.00000000       1.25715127       1.08240587      -0.09433368
C        2.54438514       8.44872938      10.00000000       1.28235679      -1.10562561      -0.00236292
C        3.77341498       9.09884503      10.00000000       0.23865192       0.01701535       0.00632718
C        3.72607066      10.49363473      10.00000000      -0.04027097      -0.06222412       0.00134414
C        2.48403183       2.67372211      10.00000000       0.45649755       0.13536189      -0.00013127
C        2.41500233       4.10756281      10.00000000       1.41012728      -0.83307919       0.00578138
C        3.63739856       4.86418701      10.00000000       0.07936020      -0.44270122      -0.00035600
C        3.68067784       6.30038185      10.00000000       0.36775699       0.43150291       0.00220313
C        4.95710118       6.95791183      10.00000000      -0.03629500      -0.07726270       0.00250716
C        4.99842492       8.37232189      10.00000000      -0.04870387      -0.52156928      -0.00063701
C        6.25024099       9.03652569      10.00000000       0.07930958       0.07213212      -0.00065394
C        6.19948042      10.45238139      10.00000000       0.32578016       0.16133961       0.00021883
Pt       0.64722720       6.58994552      10.00000000      -1.42144599      -0.03768542      -0.18967387
H        0.64722720       6.58994552      12.20000000      -0.01763141      -0.00523696      -0.68586165
H        0.64722720       6.58994552      12.94000000       0.01631738       0.00539477       1.23695412
32
Lattice="9.84 0.0 0.0 4.92 8.521689973238876 0.0 0.0 0.0 20.0" Properties=species:S:1:pos:R:3:forces:R:3 energy=-255.1602572233622 pbc="T T F"
C       -4.90407279       2.72825394      10.00000000      -0.28356139      -0.19766248      -0.00033706
C       -4.95509823       4.14406101      10.00000000       0.44876470      -0.06914569      -0.00201561
C       -3.70324291       4.80768718      10.00000000      -0.06441675       0.27015906      -0.00031686
C       -3.66224620       6.22199923      10.00000000       0.49729037       0.02386903       0.00055018
C       -2.38584244       6.87990464      10.00000000      -0.14280454       0.38738574      -0.00054054
C       -2.34260280       8.31639578      10.00000000       0.06738720       0.06277704       0.00265679
C       -1.12011677       9.07272175      10.00000000      -0.02705819      -0.10900658      -0.00201078
C       -1.18885840      10.50678026      10.00000000      -0.06809486      -0.07372611       0.00070396
C       -2.43055663       2.68615078      10.00000000       0.14397744      -0.22762791      -0.00044961
C       -2.47816054       4.08081684      10.00000000      -0.06299608       0.17597700       0.00086643
C       -1.24980115       4.73157830      10.00000000      -0.05400132       0.33634277       0.00144719
N       -1.23757445       6.11658101      10.00000000       0.46727811      -0.89490148      -0.02746478
N        0.11440283       8.45981585      10.00000000      -0.44737814       0.43395733      -0.02431126
C        1.30792642       9.16224746      10.00000000       0.36094759      -1.11687938       0.00354680
C        1.25803020      10.55216557      10.00000000       0.03624101       0.59494878       0.00391975
C        0.03720704       2.62807678      10.00000000      -0.06649392      -0.14646634       0.00223684
C       -0.01311689       4.01783507      10.00000000       0.61736338      -0.05993306       0.00363332
N        1.17960686       4.71982639      10.00000000       0.01023441      -0.12558096      -0.03177611
C        2.54438514       8.44872938      10.00000000      -1.82436341      -0.86969444      -0.00829836
C        3.77341498       9.09884503      10.00000000      -0.97198790      -1.66097721      -0.00065787
C        3.72607066      10.49363473      10.00000000      -0.08368980       0.23239658       0.00030982
C        2.48403183       2.67372211      10.00000000      -0.08102526       0.01686639       0.00323141
C        2.41500233       4.10756281      10.00000000      -0.10305758      -0.55750304       0.00435676
C        3.63739856       4.86418701      10.00000000      -0.53908370       1.53155663      -0.00242979
C        3.68067784       6.30038185      10.00000000       1.37865761      -0.62696772       0.00674619
C        4.95710118       6.95791183      10.00000000      -1.63208240      -0.38142868      -0.00204165
C        4.99842492       8.37232189      10.00000000       0.81644820       0.23162879       0.00025167
C        6.25024099       9.03652569      10.00000000      -0.29812587      -0.30131955      -0.00012887
C        6.19948042      10.45238139      10.00000000       0.15452460       0.12583756      -0.00165773
Pt       0.64722720       6.58994552      10.00000000       1.74748909       2.99169794      -0.05762232
H        0.64722720       6.58994552      12.60000000       0.01276818       0.00362299      -0.64280540
H        0.64722720       6.58994552      13.34000000       0.00137130      -0.00120836       0.77765177
32
Lattice="9.84 0.0 0.0 4.92 8.521689973238876 0.0 0.0 0.0 20.0" Properties=species:S:1:pos:R:3:forces:R:3 energy=-255.1523144033585 pbc="T T F"
C       -4.90407279       2.72825394      10.00000000      -0.36682089      -0.34580594       0.00355824
C       -4.95509823       4.14406101      10.00000000       0.60596560       0.20447415       0.15318250
C       -3.70324291       4.80768718      10.00000000      -0.02561394       0.33667700      -0.03254216
C       -3.66224620       6.22199923      10.00000000       0.40685702      -0.11481439       0.13292625
C       -2.38584244       6.87990464      10.00000000      -0.30096513       0.14616936      -0.00814473
C       -2.34260280       8.31639578      10.00000000       0.13099793       0.14043139      -0.03087993
C       -1.12011677       9.07272175      10.00000000       0.07907557       0.09987913       0.00256919
C       -1.18885840      10.50678026      10.00000000      -0.23977725      -0.17791487       0.00067976
C       -2.43055663       2.68615078      10.00000000       0.19122681      -0.23743290       0.02109767
C       -2.47816054       4.08081684      10.00000000      -0.10626994       0.26145042       0.21103640
C       -1.24980115       4.73157830      10.00000000      -0.78267540       0.32394133       0.02967747
N       -1.23757445       6.11658101      10.00000000      -2.10296758      -1.91507519      -1.88141283
N        0.11440283       8.45981585      10.00000000      -0.94513675       2.23463138      -0.27813338
C        1.30792642       9.16224746      10.00000000      -0.19161155      -1.35828109      -0.12847255
C        1.25803020      10.55216557      10.00000000       0.15919419       0.65510399      -0.15971289
C        0.03720704       2.62807678      10.00000000      -0.21810883      -0.44639191       0.02837303
C       -0.01311689       4.01783507      10.00000000      -0.26367155      -0.09614348       0.04774131
C        1.17960686       4.71982639      10.00000000      -0.38244309       0.44917377      -0.57146869
C        2.54438514       8.44872938      10.00000000      -1.23040845      -1.04707663       0.11591183
C        3.77341498       9.09884503      10.00000000      -0.66255226      -1.86705921       0.05957434
C        3.72607066      10.49363473      10.00000000      -0.13198853       0.16771877      -0.01313349
C        2.48403183       2.67372211      10.00000000       0.01061699      -0.18590918      -0.03621247
C        2.41500233       4.10756281      10.00000000       0.98680502      -0.51643211      -0.04905880
C        3.63739856       4.86418701      10.00000000      -0.54987039       1.48744812       0.12218486
C        3.68067784       6.30038185      10.00000000       1.86197411      -0.39196973      -0.70859242
C        4.95710118       6.95791183      10.00000000      -1.84847591      -0.25134449       0.08283035
C        4.99842492       8.37232189      10.00000000       0.75228047       0.33663827      -0.00999271
C        6.25024099       9.03652569      10.00000000      -0.30967305      -0.26192499       0.01533225
C        6.19948042      10.45238139      10.00000000       0.25532241       0.18135462       0.00931061
Pt       0.64722720       6.58994552      10.00000000       3.83283442       1.81509396      -8.38999868
H        0.27722720       6.58994552      11.40000000      -4.78459655       0.17242112       5.35734479
H        1.01722720       6.58994552      11.40000000       6.17802292       0.20219956       5.91352641
33
Lattice="9.84 0.0 0.0 4.92 8.521689973238876 0.0 0.0 0.0 20.0" Properties=species:S:1:pos:R:3:forces:R:3 energy=-272.08200349337756 pbc="T T F"
C       -4.90407279       2.72825394      10.00000000      -0.28745263      -0.18980991      -0.00029960
C       -4.95509823       4.14406101      10.00000000       0.02797464       0.17745248      -0.00197251
C       -3.70324291       4.80768718      10.00000000       0.00498330       0.26044926      -0.00161356
C       -3.66224620       6.22199923      10.00000000      -0.09943561       0.07578402       0.00125862
C       -2.38584244       6.87990464      10.00000000      -1.12399157       1.06542423       0.07114453
C       -2.34260280       8.31639578      10.00000000      -0.61512843       0.34424597      -0.01952602
C       -1.12011677       9.07272175      10.00000000      -1.39951042       0.75295104       0.07886113
C       -1.18885840      10.50678026      10.00000000      -0.31498087      -0.06562684      -0.00307594
C       -2.43055663       2.68615078      10.00000000      -0.23742994       0.13875030       0.00120323
C       -2.47816054       4.08081684      10.00000000      -0.21322691      -0.21237092       0.04666486
C       -1.24980115       4.73157830      10.00000000      -0.79395182      -0.22397589       0.02937513
C       -1.23757445       6.11658101      10.00000000       0.57126481      -0.65026543      -0.80440207
C        0.11440283       8.45981585      10.00000000       0.39672683      -0.11309454      -0.64829784
C        1.30792642       9.16224746      10.00000000      -0.25711466       0.37398799       0.01603856
C        1.25803020      10.55216557      10.00000000       0.31249093       0.35894437       0.02386485
C        0.03720704       2.62807678      10.00000000      -0.13895355      -0.31110682       0.02000850
C       -0.01311689       4.01783507      10.00000000       0.17378658      -0.89010944       0.02968284
C        1.17960686       4.71982639      10.00000000      -0.45567556      -0.20327221      -0.55707008
N        2.53175081       7.06378150      10.00000000       1.98470554       1.51748543      -0.90166159
C        2.54438514       8.44872938      10.00000000       1.18392060      -0.94297274      -0.04807701
C        3.77341498       9.09884503      10.00000000       0.23082022      -0.00127274       0.05876843
C        3.72607066      10.49363473      10.00000000      -0.02763904      -0.07793695       0.00696514
C        2.48403183       2.67372211      10.00000000       0.39463459       0.06510246      -0.02567350
C        2.41500233       4.10756281      10.00000000       1.25990411      -0.65597328       0.05891673
C        3.63739856       4.86418701      10.00000000       0.23892078      -0.28324540      -0.00212624
C        3.68067784       6.30038185      10.00000000       0.41850888       0.10522836       0.01124769
C        4.95710118       6.95791183      10.00000000      -0.05031498      -0.03068370       0.02151606
C        4.99842492       8.37232189      10.00000000      -0.04803469      -0.42806595      -0.00271226
C        6.25024099       9.03652569      10.00000000       0.10625333       0.01521851       0.00096756
C        6.19948042      10.45238139      10.00000000       0.24887922       0.15991560       0.00220683
Pt       0.64722720       6.58994552      10.00000000      -1.35968111      -0.01642306       2.54281781
H        0.09722720       6.58994552      11.80000000       2.35500722       0.04193606      -0.10847731
H        1.19722720       6.58994552      11.80000000      -2.47852869      -0.15529464       0.10376587
33
Lattice="9.84 0.0 0.0 4.92 8.521689973238876 0.0 0.0 0.0 20.0" Properties=species:S:1:pos:R:3:forces:R:3 energy=-274.7363852237129 pbc="T T F"
C       -4.90407279       2.72825394      10.00000000      -0.38460654      -0.17389411       0.00002097
C       -4.95509823       4.14406101      10.00000000       0.15068332      -0.08877247      -0.00079223
C       -3.70324291       4.80768718      10.00000000      -0.04896727       0.40169725       0.00026263
C       -3.66224620       6.22199923      10.00000000      -0.12040338       0.37339268       0.00093885
C       -2.38584244       6.87990464      10.00000000      -1.34975318       0.80443161       0.07048546
C       -2.34260280       8.31639578      10.00000000      -0.43342952       0.28370555      -0.01431938
C       -1.12011677       9.07272175      10.00000000      -1.41050989       0.76374917       0.06457479
C       -1.18885840      10.50678026      10.00000000      -0.35920466      -0.08463283       0.00189709
C       -2.43055663       2.68615078      10.00000000      -0.00215978       0.01002318       0.00064031
C       -2.47816054       4.08081684      10.00000000      -0.16829608      -0.28123806       0.02367007
C       -1.24980115       4.73157830      10.00000000      -0.68126162      -0.92986069       0.03121039
C       -1.23757445       6.11658101      10.00000000       0.34098459       0.11561687      -0.65207847
C        0.11440283       8.45981585      10.00000000       0.12066584      -0.50129841      -0.60135693
C        1.30792642       9.16224746      10.00000000       0.47016013       1.09083998       0.02828789
C        1.25803020      10.55216557      10.00000000       0.14454837       0.25321657       0.03948101
C        0.03720704       2.62807678      10.00000000      -0.14818357      -0.26264715       0.03941133
C       -0.01311689       4.01783507      10.00000000      -0.50143485      -1.09505795       0.02835461
C        1.17960686       4.71982639      10.00000000      -0.06254259       0.52427434      -0.60049448
C        2.53175081       7.06378150      10.00000000      -0.31519282      -0.13087274      -0.65296326
C        2.54438514       8.44872938      10.00000000       0.69512870       0.92220716       0.03128160
C        3.77341498       9.09884503      10.00000000       0.15573952       0.29387987       0.02389489
C        3.72607066      10.49363473      10.00000000      -0.00171230      -0.01437131       0.00064293
C        2.48403183       2.67372211      10.00000000       0.37083071       0.08302475       0.00184191
C        2.41500233       4.10756281      10.00000000       1.39441368      -0.74999117       0.06445482
C        3.63739856       4.86418701      10.00000000       0.43570632      -0.29458508      -0.01429423
C        3.68067784       6.30038185      10.00000000       1.32727113      -0.78996174       0.07045560
C        4.95710118       6.95791183      10.00000000       0.12668827      -0.36442849       0.00094751
C        4.99842492       8.37232189      10.00000000       0.05227673      -0.40279634       0.00025570
C        6.25024099       9.03652569      10.00000000      -0.15892177       0.08312211      -0.00076195
C        6.19948042      10.45238139      10.00000000       0.37173303       0.16143538       0.00002381
Pt       0.64722720       6.58994552      10.00000000      -0.00278204       0.00012951      -0.34234298
H        0.27722720       6.58994552      11.80000000      -2.20981642      -0.01561833       1.20381322
H        1.01722720       6.58994552      11.80000000       2.20974215       0.01501762       1.20372205
32
Lattice="9.84 0.0 0.0 4.92 8.521689973238876 0.0 0.0 0.0 20.0" Properties=species:S:1:pos:R:3:forces:R:3 energy=-255.1500168938409 pbc="T T F"
C       -4.90407279       2.72825394      10.00000000      -0.28509889      -0.19669709      -0.00054347
C       -4.95509823       4.14406101      10.00000000       0.44891232      -0.06952371      -0.00387598
C       -3.70324291       4.80768718      10.00000000      -0.06612952       0.26920048      -0.00003472
C       -3.66224620       6.22199923      10.00000000       0.49662941       0.02700080      -0.00151288
C       -2.38584244       6.87990464      10.00000000      -0.14648072       0.38529758      -0.00366195
C       -2.34260280       8.31639578      10.00000000       0.06600316       0.06093883       0.00317829
C       -1.12011677       9.07272175      10.00000000      -0.02045494      -0.10496036      -0.00321039
C       -1.18885840      10.50678026      10.00000000      -0.07057815      -0.07476967       0.00014594
C       -2.43055663       2.68615078      10.00000000       0.14211170      -0.22693748      -0.00072056
C       -2.47816054       4.08081684      10.00000000      -0.06152052       0.17551706      -0.00097580
C       -1.24980115       4.73157830      10.00000000      -0.05208401       0.33055642      -0.00088181
N       -1.23757445       6.11658101      10.00000000       0.50490036      -0.87970661      -0.00086185
N        0.11440283       8.45981585      10.00000000      -0.44232186       0.40815604      -0.00857429
C        1.30792642       9.16224746      10.00000000       0.35798335      -1.11715928       0.00405916
C        1.25803020      10.55216557      10.00000000       0.03860293       0.59428149       0.00423855
C        0.03720704       2.62807678      10.00000000      -0.06699144      -0.14541497       0.00111633
C       -0.01311689       4.01783507      10.00000000       0.61641972      -0.06049308       0.00243476
N        1.17960686       4.71982639      10.00000000       0.00394007      -0.09083457      -0.01447727
C        2.54438514       8.44872938      10.00000000      -1.81943330      -0.87540691      -0.00673172
C        3.77341498       9.09884503      10.00000000      -0.97526572      -1.65842097      -0.00073093
C        3.72607066      10.49363473      10.00000000      -0.08045100       0.23215088       0.00001370
C        2.48403183       2.67372211      10.00000000      -0.07785278       0.02082377       0.00255108
C        2.41500233       4.10756281      10.00000000      -0.10222364      -0.56295428       0.00360208
C        3.63739856       4.86418701      10.00000000      -0.54018750       1.52636270      -0.00483202
C        3.68067784       6.30038185      10.00000000       1.35867840      -0.61961203       0.01809516
C        4.95710118       6.95791183      10.00000000      -1.63228147      -0.38141474      -0.00331208
C        4.99842492       8.37232189      10.00000000       0.81875599       0.23233467      -0.00013748
C        6.25024099       9.03652569      10.00000000      -0.29962725      -0.30062109      -0.00042687
C        6.19948042      10.45238139      10.00000000       0.15311374       0.12429505      -0.00138195
Pt       0.64722720       6.58994552      10.00000000       1.72922835       2.97534747      -0.07848776
H        0.27722720       6.58994552      13.20000000      -0.50140010       0.00002073       0.05446632
H        1.01722720       6.58994552      13.20000000       0.50802685       0.00225161       0.04527348
33
Lattice="9.84 0.0 0.0 4.92 8.521689973238876 0.0 0.0 0.0 20.0" Properties=species:S:1:pos:R:3:forces:R:3 energy=-271.09288572281116 pbc="T T F"
C       -4.90407279       2.72825394      10.00000000      -0.35843568      -0.19193525       0.00002320
C       -4.95509823       4.14406101      10.00000000       0.06698526       0.14201782      -0.00156579
C       -3.70324291       4.80768718      10.00000000      -0.01134063       0.28587998      -0.00021714
C       -3.66224620       6.22199923      10.00000000      -0.07814381       0.16758796       0.00766196
C       -2.38584244       6.87990464      10.00000000      -1.29214325       0.99721129       0.04058618
C       -2.34260280       8.31639578      10.00000000      -0.52267759       0.31851305      -0.02036186
C       -1.12011677       9.07272175      10.00000000      -1.42284266       0.84407686       0.04721540
C       -1.18885840      10.50678026      10.00000000      -0.34365587      -0.11152413      -0.00097754
C       -2.43055663       2.68615078      10.00000000      -0.20140726       0.12744225       0.00339312
C       -2.47816054       4.08081684      10.00000000      -0.21527440      -0.25636221       0.04363420
C       -1.24980115       4.73157830      10.00000000      -0.80558690      -0.43344667       0.01364719
C       -1.23757445       6.11658101      10.00000000       1.21481386      -0.26915704      -0.53921265
C        0.11440283       8.45981585      10.00000000       0.41613573      -0.60555121      -0.39332353
C        1.30792642       9.16224746      10.00000000      -0.24771423       0.45957643       0.00775073
C        1.25803020      10.55216557      10.00000000       0.33126607       0.30980972       0.01030347
C        0.03720704       2.62807678      10.00000000      -0.18803452      -0.30166169       0.03750215
C       -0.01311689       4.01783507      10.00000000       0.03254052      -0.98082456       0.01997455
C        1.17960686       4.71982639      10.00000000      -0.54779791       0.43792517      -0.40731373
N        2.53175081       7.06378150      10.00000000       1.52178409       1.21758129      -0.52289260
C        2.54438514       8.44872938      10.00000000       1.22608566      -0.95665431      -0.04008239
C        3.77341498       9.09884503      10.00000000       0.22069711      -0.00120289       0.03190558
C        3.72607066      10.49363473      10.00000000      -0.05053170      -0.06444245       0.00697864
C        2.48403183       2.67372211      10.00000000       0.45042978       0.12790711      -0.01110641
C        2.41500233       4.10756281      10.00000000       1.42955528      -0.81587030       0.03379162
C        3.63739856       4.86418701      10.00000000       0.09060455      -0.41015339      -0.00529844
C        3.68067784       6.30038185      10.00000000       0.39902633       0.33979435      -0.01052923
C        4.95710118       6.95791183      10.00000000      -0.04463018      -0.05649538       0.01266142
C        4.99842492       8.37232189      10.00000000      -0.04461028      -0.48307777       0.00024677
C        6.25024099       9.03652569      10.00000000       0.07500534       0.06828874      -0.00100187
C        6.19948042      10.45238139      10.00000000       0.30248535       0.14361672       0.00173487
Pt       0.64722720       6.58994552      10.00000000      -1.38008867      -0.00762925       1.66127311
H       -0.05277280       6.58994552      12.20000000       3.62263685       0.03922720      -0.09550598
H        1.34722720       6.58994552      12.20000000      -3.64089726      -0.08140160       0.10527336
33
Lattice="9.84 0.0 0.0 4.92 8.521689973238876 0.0 0.0 0.0 20.0" Properties=species:S:1:pos:R:3:forces:R:3 energy=-268.1461551858707 pbc="T T F"
C       -4.90407279       2.72825394      10.00000000      -0.13526806      -0.18985504       0.00346214
C       -4.95509823       4.14406101      10.00000000      -0.01537114       0.20433765      -0.01549398
C       -3.70324291       4.80768718      10.00000000      -0.02513287       0.21844832      -0.01486750
C       -3.66224620       6.22199923      10.00000000       0.15881869      -0.16138681       0.05418575
C       -2.38584244       6.87990464      10.00000000      -0.49104787       0.67833045       0.11581517
C       -2.34260280       8.31639578      10.00000000      -0.47191255      -0.06333110      -0.01958345
C       -1.12011677       9.07272175      10.00000000      -1.14240825       0.51359626       0.11946326
C       -1.18885840      10.50678026      10.00000000      -0.30642031       0.00905299      -0.03652700
C       -2.43055663       2.68615078      10.00000000      -0.03141417       0.06539103       0.01255200
C       -2.47816054       4.08081684      10.00000000      -0.08215688       0.18889032       0.14480663
C       -1.24980115       4.73157830      10.00000000      -0.83847217       0.32369908       0.03848562
N       -1.23757445       6.11658101      10.00000000      -0.91970814      -1.47132591      -1.52826281
C        0.11440283       8.45981585      10.00000000       0.31582649       0.38003232      -0.92691657
C        1.30792642       9.16224746      10.00000000       0.15644960       0.16492488       0.00485296
C        1.25803020      10.55216557      10.00000000       0.23867243       0.36686833       0.04268504
C        0.03720704       2.62807678      10.00000000      -0.24143907      -0.37672524       0.04276885
C       -0.01311689       4.01783507      10.00000000      -0.18901369      -0.16938574       0.00493471
C        1.17960686       4.71982639      10.00000000      -0.25673888      -0.35591776      -0.92647003
N        2.53175081       7.06378150      10.00000000       0.94639481       1.45309185      -1.52879150
C        2.54438514       8.44872938      10.00000000       0.85092068      -0.33204443       0.03877314
C        3.77341498       9.09884503      10.00000000       0.06998367      -0.17713954       0.14476282
C        3.72607066      10.49363473      10.00000000       0.02686770      -0.06897515       0.01257577
C        2.48403183       2.67372211      10.00000000       0.31807113      -0.01049345      -0.03663654
C        2.41500233       4.10756281      10.00000000       1.12676129      -0.50070607       0.11935465
C        3.63739856       4.86418701      10.00000000       0.47456406       0.05220240      -0.01949276
C        3.68067784       6.30038185      10.00000000       0.46861470      -0.66470907       0.11574844
C        4.95710118       6.95791183      10.00000000      -0.15237427       0.17084470       0.05408831
C        4.99842492       8.37232189      10.00000000       0.02852192      -0.21902134      -0.01488108
C        6.25024099       9.03652569      10.00000000       0.00654537      -0.20969905      -0.01543247
C        6.19948042      10.45238139      10.00000000       0.12141180       0.17729709       0.00346309
Pt       0.64722720       6.58994552      10.00000000      -0.00264901       0.00027336      -6.07477977
H        0.27722720       6.58994552      11.40000000      -5.53504615       0.23706419       5.03347580
H        1.01722720       6.58994552      11.40000000       5.53520490      -0.23775260       5.03343450
33
Lattice="9.84 0.0 0.0 4.92 8.521689973238876 0.0 0.0 0.0 20.0" Properties=species:S:1:pos:R:3:forces:R:3 energy=-276.1152448407116 pbc="T T F"
C       -4.90407279       2.72825394      10.00000000      -0.43574828      -0.20351309      -0.00010242
C       -4.95509823       4.14406101      10.00000000       0.15136615      -0.08831503       0.00013597
C       -3.70324291       4.80768718      10.00000000      -0.05377266       0.46387830      -0.00009909
C       -3.66224620       6.22199923      10.00000000      -0.09105780       0.41524017       0.00003806
C       -2.38584244       6.87990464      10.00000000      -1.39676897       0.78337855      -0.00018027
C       -2.34260280       8.31639578      10.00000000      -0.41879644       0.25373640      -0.00004882
C       -1.12011677       9.07272175      10.00000000      -1.40017006       0.80762930      -0.00017433
C       -1.18885840      10.50678026      10.00000000      -0.36438117      -0.12046407       0.00003641
C       -2.43055663       2.68615078      10.00000000       0.01754561      -0.00362528       0.00024903
C       -2.47816054       4.08081684      10.00000000      -0.21083482      -0.29662464      -0.00011155
C       -1.24980115       4.73157830      10.00000000      -0.66213509      -0.78209674      -0.00102463
C       -1.23757445       6.11658101      10.00000000       0.81111383       0.34739340      -0.00073778
C        0.11440283       8.45981585      10.00000000       0.12998517      -0.90554354      -0.00071683
C        1.30792642       9.16224746      10.00000000       0.35316244       1.00848813      -0.00102199
C        1.25803020      10.55216557      10.00000000       0.12465742       0.30199243      -0.00010911
C        0.03720704       2.62807678      10.00000000      -0.12834844      -0.31143871      -0.00011375
C       -0.01311689       4.01783507      10.00000000      -0.38446531      -1.01287266      -0.00102403
C        1.17960686       4.71982639      10.00000000      -0.07153251       0.92817264      -0.00072470
C        2.53175081       7.06378150      10.00000000      -0.78594230      -0.36320213      -0.00073337
C        2.54438514       8.44872938      10.00000000       0.67607238       0.77488634      -0.00102007
C        3.77341498       9.09884503      10.00000000       0.19818239       0.30920245      -0.00011226
C        3.72607066      10.49363473      10.00000000      -0.02141409      -0.00070303       0.00025042
C        2.48403183       2.67372211      10.00000000       0.37606075       0.11890608       0.00003605
C        2.41500233       4.10756281      10.00000000       1.38365573      -0.79397942      -0.00018117
C        3.63739856       4.86418701      10.00000000       0.42123817      -0.26453881      -0.00004902
C        3.68067784       6.30038185      10.00000000       1.37429704      -0.76928632      -0.00017351
C        4.95710118       6.95791183      10.00000000       0.09734439      -0.40627444       0.00003490
C        4.99842492       8.37232189      10.00000000       0.05716794      -0.46500457      -0.00009357
C        6.25024099       9.03652569      10.00000000      -0.15972460       0.08271472       0.00013323
C        6.19948042      10.45238139      10.00000000       0.42292841       0.19114853      -0.00010228
Pt       0.64722720       6.58994552      10.00000000      -0.00220590       0.00059544       0.00484227
H        0.64722720       6.58994552      13.20000000       0.00000429       0.00000443      -0.57044961
H        0.64722720       6.58994552      13.94000000      -0.00000154      -0.00000394       0.57212489
33
Lattice="9.84 0.0 0.0 4.92 8.521689973238876 0.0 0.0 0.0 20.0" Properties=species:S:1:pos:R:3:forces:R:3 energy=-269.0611527307059 pbc="T T F"
C       -4.90407279       2.72825394      10.00000000      -0.27773937      -0.27213563      -0.00400535
C       -4.95509823       4.14406101      10.00000000      -0.01123550       0.35069583      -0.00156250
C       -3.70324291       4.80768718      10.00000000      -0.01774954       0.20570272      -0.00143356
C       -3.66224620       6.22199923      10.00000000      -0.19788803       0.02310750      -0.05023928
C       -2.38584244       6.87990464      10.00000000      -0.88254018       0.99649005       0.06582447
C       -2.34260280       8.31639578      10.00000000      -0.39755145       0.11094356       0.00519498
C       -1.12011677       9.07272175      10.00000000      -0.23357083       0.39866662       0.07177439
C       -1.18885840      10.50678026      10.00000000      -0.01723036      -0.00539504       0.01308558
C       -2.43055663       2.68615078      10.00000000      -0.20274417       0.00070056       0.01053938
C       -2.47816054       4.08081684      10.00000000      -0.10232356      -0.13275969       0.11673412
C       -1.24980115       4.73157830      10.00000000      -0.79749811      -0.07917475       0.02524622
C       -1.23757445       6.11658101      10.00000000       0.22542805      -1.15230171      -1.14204205
N        0.11440283       8.45981585      10.00000000       0.29973500       1.90142606      -0.87419688
C        1.30792642       9.16224746      10.00000000      -1.58882931       0.02028240      -0.01795543
C        1.25803020      10.55216557      10.00000000       0.07640698       0.25118469       0.03034284
C        0.03720704       2.62807678      10.00000000      -0.05955147      -0.19635198       0.13073149
C       -0.01311689       4.01783507      10.00000000       0.35229054      -0.70679466       0.06625485
C        1.17960686       4.71982639      10.00000000      -1.09206445       0.06153576      -0.91785820
N        2.53175081       7.06378150      10.00000000       1.78873136       1.41899116      -1.23620080
C        2.54438514       8.44872938      10.00000000       0.77532073      -1.32039124      -0.09170902
C        3.77341498       9.09884503      10.00000000       0.14558663       0.19388191       0.05151684
C        3.72607066      10.49363473      10.00000000       0.08778596      -0.17634847       0.01251537
C        2.48403183       2.67372211      10.00000000       0.13278682      -0.16576457      -0.04640663
C        2.41500233       4.10756281      10.00000000       1.11127708      -0.23352356       0.06749040
C        3.63739856       4.86418701      10.00000000       0.35647379      -0.18867997      -0.00451618
C        3.68067784       6.30038185      10.00000000       0.55251143      -0.21996173       0.02632548
C        4.95710118       6.95791183      10.00000000      -0.02763786       0.00268641       0.02489360
C        4.99842492       8.37232189      10.00000000      -0.04542394      -0.37237870      -0.00229021
C        6.25024099       9.03652569      10.00000000       0.28006716       0.14123402      -0.00459895
C        6.19948042      10.45238139      10.00000000       0.18126893       0.10661076      -0.00306358
Pt       0.64722720       6.58994552      10.00000000      -0.23215802      -0.74415637       5.36628625
H       -0.05277280       6.58994552      11.80000000       2.10373541      -0.00413474      -0.98763948
H        1.34722720       6.58994552      11.80000000      -2.28063763      -0.21195967      -0.71104459
31
Lattice="9.84 0.0 0.0 4.92 8.521689973238876 0.0 0.0 0.0 20.0" Properties=species:S:1:pos:R:3:forces:R:3 energy=-253.1662217167525 pbc="T T F"
C       -4.87426994       2.71995808      10.03886131      -1.96492301      -0.06587669      -1.68684135
C       -4.86371644       4.13001181       9.98595178      -2.46484638       2.53000460      -0.65639349
C       -3.60849014       4.85373326       9.97183154      -3.39494186      -5.61190061       0.11610095
C       -3.62969260       6.19419417       9.97205621      -1.39327991       0.56947687      -0.36431552
C       -2.37132470       6.76510783       9.89650493      -6.29928002       9.90707532       0.92212197
C       -2.37634005       8.25562591      10.01885484      -0.42400629      -0.70187251      -0.07225255
C       -1.17459821       8.98798353      10.08793893       2.28553215       1.53610347      -2.10621628
C       -1.20240498      10.51083195       9.91451511       0.66108120      -0.79352414       2.26685779
C       -2.46321959       2.69280614       9.93094039       0.64519798      -0.65568782       0.80321313
C       -2.45561866       4.04477852       9.98249838       0.83882756       4.93715234      -0.12549314
C       -1.28590355       4.84271499       9.99919017       2.42245831      -8.29657116      -0.07844697
N       -1.30103711       6.16593370       9.92674938       8.21962889      -3.53574121       0.30469000
N        0.12693465       8.34223564       9.92030884      -1.42672472       8.36398911       1.03920752
C        1.31973809       9.20655545      10.01028210      -1.92322152      -4.76560683      -0.30152280
C        1.25109130      10.53409935       9.91128868      -0.30764591       1.64098257       0.91507365
C       -0.00598361       2.60043845      10.06342733       1.98410543      -2.96911379       0.10712834
C        0.00750021       3.91205266      10.01944504      -2.15178148       8.19457747       0.16629461
N        1.15650192       4.67921107      10.03670058      -0.68326801       1.68945621      -0.02650901
N        2.59361078       7.11965831       9.94964695      -2.04616777      -1.50279009       0.64600259
C        2.52583240       8.46860519      10.05853271       1.37738269       0.07992064      -1.12291819
C        3.74466453       9.08770549       9.93361990       0.92240446       3.68949344       1.60526469
C        3.65429826      10.54238628      10.08137440       1.72760247      -4.16427621      -1.61124445
C        2.47971122       2.73393408      10.02169816       0.11467923      -3.76925041      -0.07771874
C        2.37629514       4.12924655      10.09228219       3.07267383       1.54555262      -2.03940338
C        3.63524900       4.95806563       9.84281529       0.53826446      -6.69973699       2.26067713
C        3.72999199       6.30560467       9.98205956      -3.03184293       1.34874629      -0.53511530
C        4.96260683       6.83865770       9.98681969       3.22553992       7.42537683      -0.09137558
C        5.01985167       8.46099553       9.96890379      -5.49747204      -7.24523387      -0.04232239
C        6.20173137       9.00642027      10.05492413       5.63565659       2.24968338      -0.49180218
C        6.21920549      10.42059578      10.03079605      -1.43751497       1.95995485       0.54366673
Pt       0.65305185       6.64806422       9.95787681       0.78122152      -6.88215216      -0.03197075
32
Lattice="9.84 0.0 0.0 4.92 8.521689973238876 0.0 0.0 0.0 20.0" Properties=species:S:1:pos:R:3:forces:R:3 energy=-260.7294830517001 pbc="T T F"
C       -4.90407279       2.72825394      10.00000000      -0.62459629      -0.41729412       0.00355050
C       -4.95509823       4.14406101      10.00000000       0.98102276       0.32449251       0.04140310
C       -3.70324291       4.80768718      10.00000000      -0.23542646       0.39077031       0.00270225
C       -3.66224620       6.22199923      10.00000000       0.34134452      -0.10983441      -0.00000437
C       -2.38584244       6.87990464      10.00000000      -1.55673854       1.76305855       0.01334765
C       -2.34260280       8.31639578      10.00000000      -0.56879654       0.16135544      -0.14160309
C       -1.12011677       9.07272175      10.00000000      -1.48630879       0.58464866       0.07444724
C       -1.18885840      10.50678026      10.00000000      -0.43886568      -0.07829844       0.00602738
C       -2.43055663       2.68615078      10.00000000      -0.03578400      -0.19089247       0.01181910
C       -2.47816054       4.08081684      10.00000000       0.04787319       0.18579418       0.01825467
C       -1.24980115       4.73157830      10.00000000      -0.20216401      -1.28020440      -0.05467739
C       -1.23757445       6.11658101      10.00000000       1.67620529      -0.23659274      -0.20756648
C        0.11440283       8.45981585      10.00000000      -0.77731970      -0.91641242      -0.50519783
C        1.30792642       9.16224746      10.00000000       1.01289687      -1.04879366      -0.00835252
C        1.25803020      10.55216557      10.00000000       0.68231088       1.06394296      -0.02134650
C        0.03720704       2.62807678      10.00000000      -0.00762390      -0.56178606       0.11753466
C       -0.01311689       4.01783507      10.00000000      -0.39677089      -0.54949579      -0.01548662
C        1.17960686       4.71982639      10.00000000       0.60829384      -0.12433322      -0.55524814
C        2.54438514       8.44872938      10.00000000      -0.16340498      -0.24635767      -0.17195133
C        3.77341498       9.09884503      10.00000000      -0.73518985      -1.94400725       0.01273950
C        3.72607066      10.49363473      10.00000000      -0.39576685       0.44393589       0.03000883
C        2.48403183       2.67372211      10.00000000       0.26701259      -0.03419279      -0.00871814
C        2.41500233       4.10756281      10.00000000       0.42715911      -0.88721612      -0.04595801
C        3.63739856       4.86418701      10.00000000      -0.87468634       1.64221398      -0.04022773
C        3.68067784       6.30038185      10.00000000       1.78049698      -0.62231181      -0.11369736
C        4.95710118       6.95791183      10.00000000      -1.90669578      -0.18760645       0.05294193
C        4.99842492       8.37232189      10.00000000       0.80595109      -0.05153692      -0.01171572
C        6.25024099       9.03652569      10.00000000      -0.33559579      -0.07516410       0.01085632
C        6.19948042      10.45238139      10.00000000       0.33216355       0.22200102       0.00884372
Pt       0.64722720       6.58994552      10.00000000       1.61086153       2.85249928       4.31304266
H       -0.50277280       6.58994552      11.80000000       1.27365929       0.05987829      -1.50619583
H        1.79722720       6.58994552      11.80000000      -1.09897431      -0.12894056      -1.29978166
33
Lattice="9.84 0.0 0.0 4.92 8.521689973238876 0.0 0.0 0.0 20.0" Properties=species:S:1:pos:R:3:forces:R:3 energy=-270.0426892095766 pbc="T T F"
C       -4.90407279       2.72825394      10.00000000      -0.19099075      -0.17950884      -0.00056409
C       -4.95509823       4.14406101      10.00000000      -0.12451340       0.16146334      -0.00992936
C       -3.70324291       4.80768718      10.00000000       0.04127693       0.34121967      -0.01124200
C       -3.66224620       6.22199923      10.00000000       0.11877365      -0.08938861       0.03647607
C       -2.38584244       6.87990464      10.00000000      -0.38142823       0.18493822       0.05934055
C       -2.34260280       8.31639578      10.00000000      -0.36546285       0.13173866      -0.00536762
C       -1.12011677       9.07272175      10.00000000      -1.19182127       0.76786033       0.07248891
C       -1.18885840      10.50678026      10.00000000      -0.34203779      -0.07850941      -0.02080269
C       -2.43055663       2.68615078      10.00000000      -0.14771852       0.14600010       0.01145185
C       -2.47816054       4.08081684      10.00000000      -0.23089458       0.04667525       0.09918090
C       -1.24980115       4.73157830      10.00000000      -1.17733489       1.19031843       0.03046883
N       -1.23757445       6.11658101      10.00000000      -0.81056131      -1.68371362      -1.09791417
C        0.11440283       8.45981585      10.00000000       0.70827955       0.14163029      -0.83468008
C        1.30792642       9.16224746      10.00000000      -0.61310092       0.27829505       0.03522450
C        1.25803020      10.55216557      10.00000000       0.28113187       0.41637247       0.04725221
C        0.03720704       2.62807678      10.00000000      -0.28409689      -0.42685218       0.04734437
C       -0.01311689       4.01783507      10.00000000       0.58059254      -0.28204668       0.03530602
C        1.17960686       4.71982639      10.00000000      -0.64921627      -0.11795349      -0.83448492
N        2.53175081       7.06378150      10.00000000       0.83653898       1.66620758      -1.09832144
C        2.54438514       8.44872938      10.00000000       1.19012442      -1.19899500       0.03066046
C        3.77341498       9.09884503      10.00000000       0.21878992      -0.03489070       0.09909413
C        3.72607066      10.49363473      10.00000000       0.14355415      -0.14958101       0.01146454
C        2.48403183       2.67372211      10.00000000       0.35373613       0.07698828      -0.02087540
C        2.41500233       4.10756281      10.00000000       1.17606445      -0.75457750       0.07243045
C        3.63739856       4.86418701      10.00000000       0.36802966      -0.14272520      -0.00531374
C        3.68067784       6.30038185      10.00000000       0.35938874      -0.17178938       0.05932130
C        4.95710118       6.95791183      10.00000000      -0.11249677       0.09866712       0.03640950
C        4.99842492       8.37232189      10.00000000      -0.03787778      -0.34174008      -0.01124671
C        6.25024099       9.03652569      10.00000000       0.11572227      -0.16684249      -0.00988542
C        6.19948042      10.45238139      10.00000000       0.17725597       0.16705150      -0.00056332
Pt       0.64722720       6.58994552      10.00000000      -0.00281879       0.00004330       0.93953173
H        0.27722720       6.58994552      11.80000000      -2.07963689       0.12860448       1.11480458
H        1.01722720       6.58994552      11.80000000       2.07970049      -0.12896559       1.11477098
33
Lattice="9.84 0.0 0.0 4.92 8.521689973238876 0.0 0.0 0.0 20.0" Properties=species:S:1:pos:R:3:forces:R:3 energy=-269.85723139638304 pbc="T T F"
C       -4.90407279       2.72825394      10.00000000      -0.35282554      -0.18906526      -0.00181400
C       -4.95509823       4.14406101      10.00000000       0.07498826       0.14422721      -0.00240874
C       -3.70324291       4.80768718      10.00000000      -0.01865115       0.27924588       0.00201131
C       -3.66224620       6.22199923      10.00000000      -0.07424627       0.14653352       0.00153344
C       -2.38584244       6.87990464      10.00000000      -1.31107469       1.06086516       0.03882292
C       -2.34260280       8.31639578      10.00000000      -0.52971991       0.31050384      -0.03174576
C       -1.12011677       9.07272175      10.00000000      -1.43128494       0.82594081       0.04958384
C       -1.18885840      10.50678026      10.00000000      -0.34300637      -0.10855382      -0.00422943
C       -2.43055663       2.68615078      10.00000000      -0.19359810       0.12204708       0.00237548
C       -2.47816054       4.08081684      10.00000000      -0.20314478      -0.23388408       0.03475309
C       -1.24980115       4.73157830      10.00000000      -0.76036462      -0.49975851       0.00003705
C       -1.23757445       6.11658101      10.00000000       1.04615937      -0.32927678      -0.56707746
C        0.11440283       8.45981585      10.00000000       0.39807528      -0.59144050      -0.39986838
C        1.30792642       9.16224746      10.00000000      -0.18920046       0.43757273      -0.00065689
C        1.25803020      10.55216557      10.00000000       0.32835352       0.30728838       0.00955464
C        0.03720704       2.62807678      10.00000000      -0.18840956      -0.29424504       0.03994394
C       -0.01311689       4.01783507      10.00000000      -0.02343359      -0.96924100       0.01461477
C        1.17960686       4.71982639      10.00000000      -0.53909598       0.41884484      -0.40519680
N        2.53175081       7.06378150      10.00000000       1.63830009       1.30697877      -0.62335622
C        2.54438514       8.44872938      10.00000000       1.19510519      -0.90973938      -0.08175050
C        3.77341498       9.09884503      10.00000000       0.21663356      -0.01766279       0.03702475
C        3.72607066      10.49363473      10.00000000      -0.04997313      -0.06504344       0.00701968
C        2.48403183       2.67372211      10.00000000       0.45032440       0.12602937      -0.01561589
C        2.41500233       4.10756281      10.00000000       1.43487316      -0.80327599       0.03557637
C        3.63739856       4.86418701      10.00000000       0.09720937      -0.38843258      -0.01406778
C        3.68067784       6.30038185      10.00000000       0.41106864       0.27938413      -0.03384839
C        4.95710118       6.95791183      10.00000000      -0.05524080      -0.04169860       0.01210839
C        4.99842492       8.37232189      10.00000000      -0.04223720      -0.46386012       0.00269801
C        6.25024099       9.03652569      10.00000000       0.07254977       0.06172121      -0.00242599
C        6.19948042      10.45238139      10.00000000       0.29175651       0.13872516       0.00121378
Pt       0.64722720       6.58994552      10.00000000      -1.33371241       0.01558116       2.66728427
H       -0.25277280       6.58994552      12.20000000       2.54459291       0.04194601      -0.56550419
H        1.54722720       6.58994552      12.20000000      -2.55776991      -0.11919661      -0.20870458
30
Lattice="9.84 0.0 0.0 4.92 8.521689973238876 0.0 0.0 0.0 20.0" Properties=species:S:1:pos:R:3:forces:R:3 energy=-250.23760905721426 pbc="T T F"
C       -4.88917137       2.72410601      10.01943066      -1.57350923      -0.23113641      -0.79698629
C       -4.90940733       4.13703641       9.99297589      -1.00145630       1.30554913       0.43098725
C       -3.65586653       4.83071022       9.98591577      -2.07512405      -1.91026716       0.04460458
C       -3.64596940       6.20809670       9.98602811       0.17070788       0.29486263      -0.23593188
C       -2.37858357       6.82250623       9.94825247      -2.83032657       4.83489245       0.54255595
C       -2.35947143       8.28601085      10.00942742       0.07305636       0.60503325      -0.26343948
C       -1.14735749       9.03035264      10.04396946       1.84822270       1.03435464      -1.06300321
C       -1.19563169      10.50880611       9.95725755      -1.03202535      -0.65388979       1.34099622
C       -2.44688811       2.68947846       9.96547019       1.25979997      -1.26318309      -0.04849291
C       -2.46688960       4.06279768       9.99124919       0.40679753       2.56737101      -0.13112724
C       -1.26785235       4.78714665       9.99959508       1.07511511      -4.01436146      -0.12953418
N       -1.26930578       6.14125736       9.96337469       4.13922191      -2.85352797       0.29525521
N        0.12066874       8.40102575       9.96015442      -0.99146374       4.28554843       0.64658494
C        1.31383226       9.18440146      10.00514105      -0.95046210      -4.37327952      -0.58556352
C        1.25456075      10.54313246       9.95564434       0.33416634       1.59834007       0.55781763
C        0.01561171       2.61425762      10.03171367      -0.14213393      -1.55157713      -0.36193610
C       -0.00280834       3.96494387      10.00972252      -1.82828024       3.70673737       0.10859680
C        1.16805439       4.69951873      10.01835029      -0.44119242       1.64427229       0.01324548
C        2.57531513       8.47666778       9.97482347      -2.95785405      -1.63093719       0.29723083
C        3.76413861       9.10878293      10.02926635       1.46146782      -3.00324637      -0.63396680
C        3.71169543      10.48806496       9.96680995      -0.36951091       0.75388167       0.49247409
C        2.44814563       2.69809788      10.04068720       1.86136147      -1.15198260      -0.66146844
C        2.41284203       4.13766880      10.01084908       0.33877683      -2.05665420       0.46159831
C        3.61804497       4.87502888      10.04614110       1.68143043       2.59430992      -1.04159197
C        3.67960306       6.34732116       9.92140765       1.11100057      -2.41321104       0.88845038
C        4.98175826       6.96052324       9.99102978      -2.38362903      -1.83957332      -0.35680561
C        5.00117774       8.31269482       9.99340984       1.42923912       5.62644554       0.18799550
C        6.26095437       9.08086251       9.98445189      -1.36827194      -5.10309831       0.32207496
C        6.17522561      10.43732868      10.02746206       0.79140650       2.60615104       0.08615057
Pt       0.65708973       6.57405271      10.01539802       1.96234463       0.59595432      -0.18594460
33
Lattice="9.84 0.0 0.0 4.92 8.521689973238876 0.0 0.0 0.0 20.0" Properties=species:S:1:pos:R:3:forces:R:3 energy=-270.68744492019806 pbc="T T F"
C       -4.90407279       2.72825394      10.00000000      -0.22554884      -0.16707938      -0.00055988
C       -4.95509823       4.14406101      10.00000000      -0.17042629       0.13079892      -0.00279322
C       -3.70324291       4.80768718      10.00000000       0.06600335       0.40111741      -0.00512199
C       -3.66224620       6.22199923      10.00000000       0.10963670      -0.05759627       0.01494179
C       -2.38584244       6.87990464      10.00000000      -0.33336048      -0.04105898       0.01161175
C       -2.34260280       8.31639578      10.00000000      -0.30069764       0.24045819       0.00167424
C       -1.12011677       9.07272175      10.00000000      -1.21962309       0.89130921       0.02174607
C       -1.18885840      10.50678026      10.00000000      -0.36905262      -0.13361332      -0.00455404
C       -2.43055663       2.68615078      10.00000000      -0.21328119       0.18927637       0.00516597
C       -2.47816054       4.08081684      10.00000000      -0.29448714      -0.01763446       0.03804894
C       -1.24980115       4.73157830      10.00000000      -1.35035213       1.59750525       0.01116149
N       -1.23757445       6.11658101      10.00000000      -0.54422965      -1.69895706      -0.45512857
C        0.11440283       8.45981585      10.00000000       0.90315894      -0.06802580      -0.39950636
C        1.30792642       9.16224746      10.00000000      -1.00655947       0.33653394       0.02373935
C        1.25803020      10.55216557      10.00000000       0.31090736       0.44216818       0.02251770
C        0.03720704       2.62807678      10.00000000      -0.31400600      -0.45305881       0.02255887
C       -0.01311689       4.01783507      10.00000000       0.97442416      -0.33983868       0.02376032
C        1.17960686       4.71982639      10.00000000      -0.84389650       0.09088678      -0.39946061
N        2.53175081       7.06378150      10.00000000       0.56965245       1.68171482      -0.45528062
C        2.54438514       8.44872938      10.00000000       1.36317543      -1.60601001       0.01120842
C        3.77341498       9.09884503      10.00000000       0.28235094       0.02940313       0.03799600
C        3.72607066      10.49363473      10.00000000       0.20928542      -0.19284010       0.00518365
C        2.48403183       2.67372211      10.00000000       0.38071962       0.13199050      -0.00456820
C        2.41500233       4.10756281      10.00000000       1.20356730      -0.87776552       0.02172282
C        3.63739856       4.86418701      10.00000000       0.30331601      -0.25111106       0.00170392
C        3.68067784       6.30038185      10.00000000       0.31164387       0.05380472       0.01159523
C        4.95710118       6.95791183      10.00000000      -0.10347063       0.06678961       0.01490917
C        4.99842492       8.37232189      10.00000000      -0.06256771      -0.40163445      -0.00512061
C        6.25024099       9.03652569      10.00000000       0.16162956      -0.13628845      -0.00277103
C        6.19948042      10.45238139      10.00000000       0.21198178       0.15474848      -0.00056202
Pt       0.64722720       6.58994552      10.00000000      -0.00295000       0.00017525       0.21109384
H        0.27722720       6.58994552      12.20000000      -0.79689016       0.05203847       0.60766043
H        1.01722720       6.58994552      12.20000000       0.79693513      -0.05214486       0.60764889
32
Lattice="9.84 0.0 0.0 4.92 8.521689973238876 0.0 0.0 0.0 20.0" Properties=species:S:1:pos:R:3:forces:R:3 energy=-263.03273785534753 pbc="T T F"
C       -4.90407279       2.72825394      10.00000000      -0.61173716      -0.40528936       0.01342887
C       -4.95509823       4.14406101      10.00000000       0.92705828       0.30501826       0.03360172
C       -3.70324291       4.80768718      10.00000000      -0.18448838       0.44078901      -0.00581134
C       -3.66224620       6.22199923      10.00000000       0.30618808      -0.14661545       0.03479006
C       -2.38584244       6.87990464      10.00000000      -1.24086568       1.38754111       0.11408795
C       -2.34260280       8.31639578      10.00000000      -0.48334622       0.26250791      -0.04449067
C       -1.12011677       9.07272175      10.00000000      -1.52355111       0.70293887       0.07669498
C       -1.18885840      10.50678026      10.00000000      -0.44507556      -0.08962416      -0.00494651
C       -2.43055663       2.68615078      10.00000000      -0.04685546      -0.16709457       0.00157093
C       -2.47816054       4.08081684      10.00000000      -0.03966020       0.12786227       0.07284524
C       -1.24980115       4.73157830      10.00000000      -0.35011351      -0.75382981       0.06959644
C       -1.23757445       6.11658101      10.00000000       1.53353032      -0.48532108      -1.07315053
C        0.11440283       8.45981585      10.00000000      -0.68194435      -0.92296071      -0.65107166
C        1.30792642       9.16224746      10.00000000       0.88555334      -0.94391749       0.00709107
C        1.25803020      10.55216557      10.00000000       0.67009055       1.05660997      -0.03927941
C        0.03720704       2.62807678      10.00000000      -0.05710706      -0.52333177       0.13429562
C       -0.01311689       4.01783507      10.00000000      -0.07103224      -0.69455502       0.03358457
C        1.17960686       4.71982639      10.00000000       0.43527545      -0.18279988      -0.77591424
C        2.54438514       8.44872938      10.00000000      -0.16990110      -0.53696141      -0.03023244
C        3.77341498       9.09884503      10.00000000      -0.75948749      -1.81467334      -0.00980477
C        3.72607066      10.49363473      10.00000000      -0.35650125       0.42307685       0.01330156
C        2.48403183       2.67372211      10.00000000       0.25660667      -0.04183124      -0.00997247
C        2.41500233       4.10756281      10.00000000       0.43110942      -0.92901850       0.00577467
C        3.63739856       4.86418701      10.00000000      -0.82108081       1.65286759      -0.01698725
C        3.68067784       6.30038185      10.00000000       1.69246109      -0.58797373      -0.07890108
C        4.95710118       6.95791183      10.00000000      -1.93644028      -0.28166489       0.00088486
C        4.99842492       8.37232189      10.00000000       0.78553207      -0.10414891      -0.01085058
C        6.25024099       9.03652569      10.00000000      -0.32199131      -0.05738228       0.00920316
C        6.19948042      10.45238139      10.00000000       0.37385834       0.24195764       0.00333241
Pt       0.64722720       6.58994552      10.00000000       1.18597182       3.00649241       1.67536695
H        0.09722720       6.58994552      11.80000000       2.74827206       0.13214344       0.03082337
H        1.19722720       6.58994552      11.80000000      -2.11959507      -0.07054104       0.40892641
32
Lattice="9.84 0.0 0.0 4.92 8.521689973238876 0.0 0.0 0.0 20.0" Properties=species:S:1:pos:R:3:forces:R:3 energy=-253.33716048423273 pbc="T T F"
C       -4.90407279       2.72825394      10.00000000      -0.25787810      -0.19516639      -0.00344561
C       -4.95509823       4.14406101      10.00000000       0.39051064      -0.09640323      -0.07264001
C       -3.70324291       4.80768718      10.00000000      -0.02887713       0.24918575       0.01132507
C       -3.66224620       6.22199923      10.00000000       0.47151770       0.07006392      -0.02039258
C       -2.38584244       6.87990464      10.00000000      -0.23783061       0.15535708      -0.06398014
C       -2.34260280       8.31639578      10.00000000       0.08310041       0.11844079       0.04151939
C       -1.12011677       9.07272175      10.00000000       0.01132651      -0.16332802      -0.05878059
C       -1.18885840      10.50678026      10.00000000      -0.06833154      -0.05548017      -0.02142261
C       -2.43055663       2.68615078      10.00000000       0.12634577      -0.19885771       0.00058040
C       -2.47816054       4.08081684      10.00000000      -0.09477887       0.10627975       0.03661897
C       -1.24980115       4.73157830      10.00000000      -0.19282553       0.44864673      -0.08673834
N       -1.23757445       6.11658101      10.00000000      -1.06294773      -1.29286533      -0.82457572
N        0.11440283       8.45981585      10.00000000      -0.43176823       1.08124583      -0.38073530
C        1.30792642       9.16224746      10.00000000       0.17435841      -1.11740468       0.05720203
C        1.25803020      10.55216557      10.00000000      -0.01243810       0.54845781       0.08553070
C        0.03720704       2.62807678      10.00000000      -0.05507002      -0.17780516       0.04623606
C       -0.01311689       4.01783507      10.00000000       0.60210332      -0.02594722       0.04393250
N        1.17960686       4.71982639      10.00000000       0.01730641      -0.56546011      -0.74601733
C        2.54438514       8.44872938      10.00000000      -1.84917772      -0.96453840      -0.31429065
C        3.77341498       9.09884503      10.00000000      -0.88694525      -1.68460099       0.00615651
C        3.72607066      10.49363473      10.00000000      -0.09693285       0.23059456      -0.00113849
C        2.48403183       2.67372211      10.00000000      -0.10370409      -0.01515465       0.08395136
C        2.41500233       4.10756281      10.00000000       0.02612486      -0.49340641       0.13957226
C        3.63739856       4.86418701      10.00000000      -0.53706555       1.44461985      -0.15004055
C        3.68067784       6.30038185      10.00000000       1.53461077      -0.49276023       0.24581254
C        4.95710118       6.95791183      10.00000000      -1.61477367      -0.45187029      -0.06897770
C        4.99842492       8.37232189      10.00000000       0.79009862       0.25655340      -0.00056643
C        6.25024099       9.03652569      10.00000000      -0.30372419      -0.30505295      -0.01403053
C        6.19948042      10.45238139      10.00000000       0.18922611       0.13779797      -0.01692309
Pt       0.64722720       6.58994552      10.00000000       2.66490575       3.17872423       0.81129536
H        0.09722720       6.58994552      11.80000000       3.02769311       0.10114516       0.52546760
H        1.19722720       6.58994552      11.80000000      -2.27224188       0.16848305       0.69148791
33
Lattice="9.84 0.0 0.0 4.92 8.521689973238876 0.0 0.0 0.0 20.0" Properties=species:S:1:pos:R:3:forces:R:3 energy=-266.1736224574302 pbc="T T F"
C       -4.90407279       2.72825394      10.00000000      -0.06458845      -0.13892781      -0.00375313
C       -4.95509823       4.14406101      10.00000000      -0.25911747      -0.07550759      -0.00268976
C       -3.70324291       4.80768718      10.00000000       0.14380521       0.10554986      -0.00218436
C       -3.66224620       6.22199923      10.00000000      -0.03065806       0.28602064       0.01270441
C       -2.38584244       6.87990464      10.00000000      -0.16080391      -0.41585084       0.00094355
C       -2.34260280       8.31639578      10.00000000       0.02146879       0.06200584       0.00676213
C       -1.12011677       9.07272175      10.00000000       0.04067489       0.04787091      -0.00011565
C       -1.18885840      10.50678026      10.00000000       0.05916274       0.03472642       0.02294599
C       -2.43055663       2.68615078      10.00000000       0.01050517       0.02305192       0.00643682
C       -2.47816054       4.08081684      10.00000000      -0.24370641      -0.11747467       0.02376764
C       -1.24980115       4.73157830      10.00000000      -0.36499700       0.72356324       0.01915763
N       -1.23757445       6.11658101      10.00000000      -1.78624124      -0.56605780      -0.49824069
N        0.11440283       8.45981585      10.00000000       0.42746622       1.27792128      -0.58101651
C        1.30792642       9.16224746      10.00000000      -0.77393204       0.52616796       0.02943496
C        1.25803020      10.55216557      10.00000000      -0.23917697       0.04781283       0.06083936
C        0.03720704       2.62807678      10.00000000       0.01394521      -0.05919010       0.03464990
C       -0.01311689       4.01783507      10.00000000       0.71277395       0.00319261       0.02412166
N        1.17960686       4.71982639      10.00000000      -0.27879188      -0.60748469      -0.60588797
C        2.53175081       7.06378150      10.00000000      -0.79288304       0.23050788      -0.59441742
C        2.54438514       8.44872938      10.00000000       0.01220733       0.14775295       0.03333643
C        3.77341498       9.09884503      10.00000000       0.10047830       0.38978979       0.03667635
C        3.72607066      10.49363473      10.00000000       0.18190628      -0.04381196       0.00740187
C        2.48403183       2.67372211      10.00000000      -0.05284492       0.08450247       0.03103393
C        2.41500233       4.10756281      10.00000000       0.46861809      -0.15034460       0.02378367
C        3.63739856       4.86418701      10.00000000       0.30147764      -0.49469600       0.00158359
C        3.68067784       6.30038185      10.00000000       0.73995154      -0.67191110       0.03953247
C        4.95710118       6.95791183      10.00000000       0.23083096      -0.14430280       0.00675406
C        4.99842492       8.37232189      10.00000000       0.01024271      -0.17368217       0.00011871
C        6.25024099       9.03652569      10.00000000       0.03432862      -0.06770875      -0.00253233
C        6.19948042      10.45238139      10.00000000       0.10235190       0.08617069      -0.00516144
Pt       0.64722720       6.58994552      10.00000000       1.43823979      -0.36548762      -7.29461166
H        0.64722720       6.58994552      11.40000000       0.05627924       0.01023949       4.96494366
H        0.64722720       6.58994552      12.14000000      -0.05423485       0.00463215       4.22694227
32
Lattice="9.84 0.0 0.0 4.92 8.521689973238876 0.0 0.0 0.0 20.0" Properties=species:S:1:pos:R:3:forces:R:3 energy=-258.71852638156906 pbc="T T F"
C       -4.90407279       2.72825394      10.00000000      -0.53921448      -0.41681440       0.00002098
C       -4.95509823       4.14406101      10.00000000       0.76476014       0.28728313       0.00014268
C       -3.70324291       4.80768718      10.00000000      -0.11027609       0.44298657       0.00003278
C       -3.66224620       6.22199923      10.00000000       0.41461982      -0.24914835       0.00013655
C       -2.38584244       6.87990464      10.00000000      -0.12318877       0.53632308       0.00036980
C       -2.34260280       8.31639578      10.00000000       0.06665912       0.02212472      -0.00027513
C       -1.12011677       9.07272175      10.00000000       0.22999644       0.19262832       0.00024982
C       -1.18885840      10.50678026      10.00000000      -0.29213785      -0.19807654       0.00009883
C       -2.43055663       2.68615078      10.00000000       0.23890179      -0.31049435       0.00009840
C       -2.47816054       4.08081684      10.00000000      -0.05434993       0.39663587      -0.00016390
C       -1.24980115       4.73157830      10.00000000      -0.49779116       0.28652596       0.00006946
N       -1.23757445       6.11658101      10.00000000       0.60710331      -1.28658851       0.00137480
N        0.11440283       8.45981585      10.00000000      -0.95882251       1.35773308       0.00007030
C        1.30792642       9.16224746      10.00000000      -0.20141714      -1.65286426       0.00005445
C        1.25803020      10.55216557      10.00000000       0.33556097       0.85079348       0.00001776
C        0.03720704       2.62807678      10.00000000      -0.25156417      -0.41821757      -0.00006399
C       -0.01311689       4.01783507      10.00000000      -0.18039946      -0.24877294      -0.00019224
C        1.17960686       4.71982639      10.00000000      -0.36748100       1.21373885       0.00175182
C        2.54438514       8.44872938      10.00000000      -0.95103011      -0.81861617       0.00016630
C        3.77341498       9.09884503      10.00000000      -0.79589725      -1.90466056       0.00007589
C        3.72607066      10.49363473      10.00000000      -0.11753081       0.16026934       0.00004814
C        2.48403183       2.67372211      10.00000000       0.13329530      -0.13768654       0.00002499
C        2.41500233       4.10756281      10.00000000       0.67055086      -0.75418855      -0.00005184
C        3.63739856       4.86418701      10.00000000      -0.72317974       1.73042930       0.00011395
C        3.68067784       6.30038185      10.00000000       1.46506862      -0.63203491       0.00017906
C        4.95710118       6.95791183      10.00000000      -1.90152263      -0.01234895       0.00022663
C        4.99842492       8.37232189      10.00000000       0.81855581       0.31641093      -0.00018473
C        6.25024099       9.03652569      10.00000000      -0.30116670      -0.28117960       0.00029167
C        6.19948042      10.45238139      10.00000000       0.20044201       0.16460872      -0.00008351
Pt       0.64722720       6.58994552      10.00000000       2.42423979       1.36671527       0.01017666
H        0.64722720       6.58994552      14.00000000       0.00385795      -0.00202235      -0.52822124
H        0.64722720       6.58994552      14.74000000      -0.00135968       0.00050057       0.51643913
32
Lattice="9.84 0.0 0.0 4.92 8.521689973238876 0.0 0.0 0.0 20.0" Properties=species:S:1:pos:R:3:forces:R:3 energy=-251.18923782864982 pbc="T T F"
C       -4.90407279       2.72825394      10.00000000      -0.34465257      -0.26946088       0.00176274
C       -4.95509823       4.14406101      10.00000000       0.42674097       0.01399054       0.05943291
C       -3.70324291       4.80768718      10.00000000      -0.05188433       0.24917126       0.01043705
C       -3.66224620       6.22199923      10.00000000       0.53728986      -0.01344907       0.06320474
C       -2.38584244       6.87990464      10.00000000      -0.58972244       0.32833891      -0.14533677
C       -2.34260280       8.31639578      10.00000000       0.13935099       0.04442346       0.00448639
C       -1.12011677       9.07272175      10.00000000       0.08333111      -0.18124580       0.00444079
C       -1.18885840      10.50678026      10.00000000      -0.05579879      -0.03972953      -0.01069532
C       -2.43055663       2.68615078      10.00000000       0.11708090      -0.15268005       0.03491805
C       -2.47816054       4.08081684      10.00000000      -0.07328175       0.13952414       0.14784340
C       -1.24980115       4.73157830      10.00000000      -0.25271646       0.49505907      -0.23116405
N       -1.23757445       6.11658101      10.00000000      -0.71762731      -1.36189568      -1.20136382
N        0.11440283       8.45981585      10.00000000      -0.18428582       1.24112330      -0.27364286
C        1.30792642       9.16224746      10.00000000      -0.19598618      -1.34296729      -0.00733550
C        1.25803020      10.55216557      10.00000000       0.15034312       0.53639896      -0.02162595
C        0.03720704       2.62807678      10.00000000      -0.02587941      -0.25047677       0.04011917
C       -0.01311689       4.01783507      10.00000000       0.72520942       0.08313646       0.02724661
N        1.17960686       4.71982639      10.00000000      -0.11158430      -0.32111446      -0.63412232
C        2.54438514       8.44872938      10.00000000      -1.08794620      -0.91128357      -0.27358571
C        3.77341498       9.09884503      10.00000000      -0.84367129      -1.74659703       0.07534910
C        3.72607066      10.49363473      10.00000000      -0.12809456       0.24453003       0.01138780
C        2.48403183       2.67372211      10.00000000      -0.15902186      -0.08803501       0.05382047
C        2.41500233       4.10756281      10.00000000       0.02214048      -0.40973421       0.00799321
C        3.63739856       4.86418701      10.00000000      -0.80198533       1.36253288      -0.05936743
C        3.68067784       6.30038185      10.00000000       1.58666096      -0.01752709      -0.36235010
C        4.95710118       6.95791183      10.00000000      -1.58503113      -0.36610055       0.06908714
C        4.99842492       8.37232189      10.00000000       0.73763407       0.28595120      -0.05540036
C        6.25024099       9.03652569      10.00000000      -0.28580549      -0.29731621      -0.00050536
C        6.19948042      10.45238139      10.00000000       0.22760385       0.17810692       0.00946260
Pt       0.64722720       6.58994552      10.00000000       2.36539990       2.12451978       4.36944187
H       -0.50277280       6.58994552      11.80000000       1.14026903       0.15828848      -0.50828680
H        1.79722720       6.58994552      11.80000000      -0.75824199       0.28454727      -1.19659735
32
Lattice="9.84 0.0 0.0 4.92 8.521689973238876 0.0 0.0 0.0 20.0" Properties=species:S:1:pos:R:3:forces:R:3 energy=-258.6900219612053 pbc="T T F"
C       -4.90407279       2.72825394      10.00000000      -0.54085568      -0.41690523      -0.00017980
C       -4.95509823       4.14406101      10.00000000       0.76291121       0.28667495       0.00055539
C       -3.70324291       4.80768718      10.00000000      -0.11109256       0.44318226      -0.00029514
C       -3.66224620       6.22199923      10.00000000       0.41217648      -0.24751208       0.00095765
C       -2.38584244       6.87990464      10.00000000      -0.12687067       0.52499676      -0.00286865
C       -2.34260280       8.31639578      10.00000000       0.06456292       0.02341444       0.00196113
C       -1.12011677       9.07272175      10.00000000       0.24107877       0.19369823      -0.00132414
C       -1.18885840      10.50678026      10.00000000      -0.29228919      -0.19754860       0.00047813
C       -2.43055663       2.68615078      10.00000000       0.23683411      -0.30982587       0.00032861
C       -2.47816054       4.08081684      10.00000000      -0.05317966       0.39316004       0.00243609
C       -1.24980115       4.73157830      10.00000000      -0.50465566       0.29028070      -0.00322583
N       -1.23757445       6.11658101      10.00000000       0.58693179      -1.29511732      -0.01081812
N        0.11440283       8.45981585      10.00000000      -0.95565386       1.37500054      -0.00587317
C        1.30792642       9.16224746      10.00000000      -0.21786623      -1.65070448      -0.00098085
C        1.25803020      10.55216557      10.00000000       0.33631713       0.84800130      -0.00039928
C        0.03720704       2.62807678      10.00000000      -0.25202790      -0.41519808       0.00132091
C       -0.01311689       4.01783507      10.00000000      -0.17952609      -0.25369639       0.00173669
C        1.17960686       4.71982639      10.00000000      -0.37230937       1.21840623      -0.01532946
C        2.54438514       8.44872938      10.00000000      -0.94775266      -0.82175248       0.00395879
C        3.77341498       9.09884503      10.00000000      -0.79526850      -1.90350572      -0.00007097
C        3.72607066      10.49363473      10.00000000      -0.11670359       0.15935540      -0.00000064
C        2.48403183       2.67372211      10.00000000       0.13490778      -0.13458916       0.00141112
C        2.41500233       4.10756281      10.00000000       0.67407331      -0.75908695      -0.00016598
C        3.63739856       4.86418701      10.00000000      -0.72281141       1.72181184      -0.00075851
C        3.68067784       6.30038185      10.00000000       1.45956279      -0.62478426       0.00040976
C        4.95710118       6.95791183      10.00000000      -1.89986673      -0.01455883       0.00009986
C        4.99842492       8.37232189      10.00000000       0.81850432       0.31791019      -0.00112050
C        6.25024099       9.03652569      10.00000000      -0.30067553      -0.28026918       0.00001632
C        6.19948042      10.45238139      10.00000000       0.20058282       0.16332181      -0.00005624
Pt       0.64722720       6.58994552      10.00000000       2.45459340       1.36538372      -0.05963615
H        0.27722720       6.58994552      13.20000000      -0.50008359       0.00408486       0.04988477
H        1.01722720       6.58994552      13.20000000       0.50802416       0.00017082       0.04472763
33
Lattice="9.84 0.0 0.0 4.92 8.521689973238876 0.0 0.0 0.0 20.0" Properties=species:S:1:pos:R:3:forces:R:3 energy=-273.1303783835806 pbc="T T F"
C       -4.90407279       2.72825394      10.00000000      -0.34144102      -0.15050951       0.00262563
C       -4.95509823       4.14406101      10.00000000       0.13579324      -0.06750980       0.01277617
C       -3.70324291       4.80768718      10.00000000      -0.05182125       0.33696117       0.00894287
C       -3.66224620       6.22199923      10.00000000      -0.08214939       0.26713911      -0.04725009
C       -2.38584244       6.87990464      10.00000000      -1.36140584       1.02191884       0.04674471
C       -2.34260280       8.31639578      10.00000000      -0.46471376       0.33773500      -0.02935899
C       -1.12011677       9.07272175      10.00000000      -1.44312226       0.71154276       0.06366203
C       -1.18885840      10.50678026      10.00000000      -0.37343698      -0.07502105      -0.00687447
C       -2.43055663       2.68615078      10.00000000      -0.02153900       0.02750913      -0.00596204
C       -2.47816054       4.08081684      10.00000000      -0.16220879      -0.18615362      -0.02151640
C       -1.24980115       4.73157830      10.00000000      -0.52752107      -1.05705318      -0.01594002
C       -1.23757445       6.11658101      10.00000000      -0.16649391      -0.17557479      -0.65444037
C        0.11440283       8.45981585      10.00000000       0.20482595      -0.39689451      -0.41923977
C        1.30792642       9.16224746      10.00000000       0.50757094       1.06192306       0.02087766
C        1.25803020      10.55216557      10.00000000       0.17141042       0.23959294       0.02435208
C        0.03720704       2.62807678      10.00000000      -0.17504333      -0.24901098       0.02419566
C       -0.01311689       4.01783507      10.00000000      -0.53910574      -1.06610058       0.02085934
C        1.17960686       4.71982639      10.00000000      -0.14676109       0.42049011      -0.41846273
C        2.53175081       7.06378150      10.00000000       0.19209587       0.16065223      -0.65541799
C        2.54438514       8.44872938      10.00000000       0.54123360       1.04907288      -0.01588300
C        3.77341498       9.09884503      10.00000000       0.14977821       0.19883138      -0.02119826
C        3.72607066      10.49363473      10.00000000       0.01763928      -0.03178511      -0.00597180
C        2.48403183       2.67372211      10.00000000       0.38498345       0.07341596      -0.00690764
C        2.41500233       4.10756281      10.00000000       1.42716025      -0.69788556       0.06359353
C        3.63739856       4.86418701      10.00000000       0.46700599      -0.34873899      -0.02939716
C        3.68067784       6.30038185      10.00000000       1.33846592      -1.00726302       0.04684507
C        4.95710118       6.95791183      10.00000000       0.08856899      -0.25815127      -0.04713080
C        4.99842492       8.37232189      10.00000000       0.05511383      -0.33797150       0.00892536
C        6.25024099       9.03652569      10.00000000      -0.14409536       0.06177026       0.01281566
C        6.19948042      10.45238139      10.00000000       0.32855958       0.13809978       0.00264670
Pt       0.64722720       6.58994552      10.00000000      -0.00229409      -0.00094009       5.26422815
H       -0.25277280       6.58994552      11.80000000       1.34548043      -0.12815575      -1.61261712
H        1.54722720       6.58994552      11.80000000      -1.34533342       0.12768400      -1.61266038
33
Lattice="9.84 0.0 0.0 4.92 8.521689973238876 0.0 0.0 0.0 20.0" Properties=species:S:1:pos:R:3:forces:R:3 energy=-265.3390211110134 pbc="T T F"
C       -4.90407279       2.72825394      10.00000000       0.01709825      -0.02983973      -0.00336444
C       -4.95509823       4.14406101      10.00000000      -0.01489389       0.00789910       0.00090410
C       -3.70324291       4.80768718      10.00000000       0.02264990      -0.01640782      -0.00338769
C       -3.66224620       6.22199923      10.00000000      -0.04002125       0.04215945       0.01281947
C       -2.38584244       6.87990464      10.00000000       0.06762983      -0.06173804      -0.02059442
C       -2.34260280       8.31639578      10.00000000      -0.02958178       0.03087307       0.01115600
C       -1.12011677       9.07272175      10.00000000       0.06453871      -0.04054064      -0.02061785
C       -1.18885840      10.50678026      10.00000000      -0.01730811       0.02262445       0.01285396
C       -2.43055663       2.68615078      10.00000000      -0.00556265       0.01042619      -0.00238681
C       -2.47816054       4.08081684      10.00000000      -0.01987054       0.00090526       0.00142874
C       -1.24980115       4.73157830      10.00000000       0.04872208       0.02959039       0.01434595
N       -1.23757445       6.11658101      10.00000000      -0.32629484      -0.04478074      -0.14748136
N        0.11440283       8.45981585      10.00000000      -0.10068104       0.28177674      -0.14735096
C        1.30792642       9.16224746      10.00000000       0.00430997      -0.01253527       0.01427738
C        1.25803020      10.55216557      10.00000000      -0.03737563      -0.01283795       0.00141831
C        0.03720704       2.62807678      10.00000000       0.03356423       0.00327102       0.00144099
C       -0.01311689       4.01783507      10.00000000      -0.03323769       0.00926667       0.01429202
N        1.17960686       4.71982639      10.00000000       0.15448904      -0.25377589      -0.14745321
N        2.53175081       7.06378150      10.00000000       0.35315505       0.02687506      -0.14751631
C        2.54438514       8.44872938      10.00000000      -0.03658367      -0.03772033       0.01431723
C        3.77341498       9.09884503      10.00000000       0.00820119       0.01043185       0.00144859
C        3.72607066      10.49363473      10.00000000       0.00044780      -0.01383856      -0.00237212
C        2.48403183       2.67372211      10.00000000       0.02823074      -0.02416841       0.01285880
C        2.41500233       4.10756281      10.00000000      -0.07768217       0.05105434      -0.02062915
C        3.63739856       4.86418701      10.00000000       0.03161927      -0.04174511       0.01116951
C        3.68067784       6.30038185      10.00000000      -0.09008269       0.07567187      -0.02057149
C        4.95710118       6.95791183      10.00000000       0.04632463      -0.03271553       0.01281110
C        4.99842492       8.37232189      10.00000000      -0.01956326       0.01569862      -0.00337458
C        6.25024099       9.03652569      10.00000000       0.00671166      -0.01376085       0.00090067
C        6.19948042      10.45238139      10.00000000      -0.03065259       0.01800860      -0.00337509
Pt       0.64722720       6.58994552      10.00000000      -0.00248875      -0.00030355      -1.90915896
H        0.64722720       6.58994552      11.80000000       0.00001575      -0.00004905       0.15519162
H        0.64722720       6.58994552      12.54000000      -0.00000854      -0.00004240       2.29534814
33
Lattice="9.84 0.0 0.0 4.92 8.521689973238876 0.0 0.0 0.0 20.0" Properties=species:S:1:pos:R:3:forces:R:3 energy=-268.34327978801366 pbc="T T F"
C       -4.90407279       2.72825394      10.00000000      -0.18774050      -0.18629661      -0.00687481
C       -4.95509823       4.14406101      10.00000000      -0.01186724       0.27236638      -0.00278040
C       -3.70324291       4.80768718      10.00000000       0.02153993       0.19508167      -0.00401375
C       -3.66224620       6.22199923      10.00000000      -0.21544148      -0.03990156      -0.06376636
C       -2.38584244       6.87990464      10.00000000      -0.65404708       1.02900953       0.09944622
C       -2.34260280       8.31639578      10.00000000      -0.29372224       0.32512386       0.01426940
C       -1.12011677       9.07272175      10.00000000      -0.57582292       0.35548989       0.11242693
C       -1.18885840      10.50678026      10.00000000      -0.00212495      -0.07664970       0.02161281
C       -2.43055663       2.68615078      10.00000000      -0.12046412      -0.04826732       0.00742431
C       -2.47816054       4.08081684      10.00000000      -0.07681027      -0.09168247       0.11973601
C       -1.24980115       4.73157830      10.00000000      -0.56473530      -0.35131896       0.07678592
C       -1.23757445       6.11658101      10.00000000       0.01709659      -1.02407624      -1.14429005
N        0.11440283       8.45981585      10.00000000       0.03672445       1.85669593      -1.08191099
C        1.30792642       9.16224746      10.00000000      -0.83158085       0.04929270       0.00320578
C        1.25803020      10.55216557      10.00000000       0.03467611       0.18110474       0.04453313
C        0.03720704       2.62807678      10.00000000      -0.02589943      -0.10562390       0.11530871
C       -0.01311689       4.01783507      10.00000000      -0.04057331      -0.70731949       0.08307154
C        1.17960686       4.71982639      10.00000000      -0.86372189      -0.22452890      -0.97808296
N        2.53175081       7.06378150      10.00000000       1.74648633       1.04436455      -1.31398402
C        2.54438514       8.44872938      10.00000000       0.42717974      -0.68666404      -0.01276703
C        3.77341498       9.09884503      10.00000000       0.12224758       0.15251316       0.06050948
C        3.72607066      10.49363473      10.00000000       0.00590042      -0.14339264       0.00887226
C        2.48403183       2.67372211      10.00000000       0.06473167      -0.21337030      -0.06151605
C        2.41500233       4.10756281      10.00000000       1.13914260      -0.05053061       0.09079713
C        3.63739856       4.86418701      10.00000000       0.45009110      -0.05550339       0.00902202
C        3.68067784       6.30038185      10.00000000       0.62615691      -0.41393432       0.10384629
C        4.95710118       6.95791183      10.00000000      -0.06972716      -0.04311793       0.03147783
C        4.99842492       8.37232189      10.00000000      -0.03473436      -0.24497012      -0.00886325
C        6.25024099       9.03652569      10.00000000       0.22366934       0.11075243      -0.00472838
C        6.19948042      10.45238139      10.00000000       0.15423620       0.12236018      -0.00287917
Pt       0.64722720       6.58994552      10.00000000      -0.20140692      -0.64127343      -5.96662766
H        0.27722720       6.58994552      11.40000000      -5.89869966      -0.07107557       4.82331182
H        1.01722720       6.58994552      11.40000000       5.60598317      -0.27056402       4.81987804
33
Lattice="9.84 0.0 0.0 4.92 8.521689973238876 0.0 0.0 0.0 20.0" Properties=species:S:1:pos:R:3:forces:R:3 energy=-275.9614131096447 pbc="T T F"
C       -4.90407279       2.72825394      10.00000000      -0.43545471      -0.20175509       0.00018400
C       -4.95509823       4.14406101      10.00000000       0.15595954      -0.09095137      -0.00027478
C       -3.70324291       4.80768718      10.00000000      -0.05518143       0.46273059       0.00020201
C       -3.66224620       6.22199923      10.00000000      -0.09251666       0.41246407       0.00160256
C       -2.38584244       6.87990464      10.00000000      -1.39915435       0.78956196       0.00750677
C       -2.34260280       8.31639578      10.00000000      -0.41179744       0.24960881      -0.00232505
C       -1.12011677       9.07272175      10.00000000      -1.40659773       0.80656795       0.00748026
C       -1.18885840      10.50678026      10.00000000      -0.36269861      -0.11779901       0.00159510
C       -2.43055663       2.68615078      10.00000000       0.02437536      -0.00756420       0.00145030
C       -2.47816054       4.08081684      10.00000000      -0.20297988      -0.29252933       0.00681404
C       -1.24980115       4.73157830      10.00000000      -0.64973048      -0.81679002      -0.00066098
C       -1.23757445       6.11658101      10.00000000       0.77408346       0.33481516      -0.09647509
C        0.11440283       8.45981585      10.00000000       0.12232129      -0.86721193      -0.09625856
C        1.30792642       9.16224746      10.00000000       0.38943166       1.01509800      -0.00064394
C        1.25803020      10.55216557      10.00000000       0.12505336       0.29314941       0.00683310
C        0.03720704       2.62807678      10.00000000      -0.12873578      -0.30256918       0.00684261
C       -0.01311689       4.01783507      10.00000000      -0.42069771      -1.01949414      -0.00066943
C        1.17960686       4.71982639      10.00000000      -0.06393924       0.88987506      -0.09626332
C        2.53175081       7.06378150      10.00000000      -0.74888860      -0.35057297      -0.09649589
C        2.54438514       8.44872938      10.00000000       0.66363911       0.80954628      -0.00064875
C        3.77341498       9.09884503      10.00000000       0.19033358       0.30513290       0.00681494
C        3.72607066      10.49363473      10.00000000      -0.02825756       0.00323262       0.00143262
C        2.48403183       2.67372211      10.00000000       0.37437401       0.11625244       0.00159060
C        2.41500233       4.10756281      10.00000000       1.39010760      -0.79291755       0.00748328
C        3.63739856       4.86418701      10.00000000       0.41421668      -0.26042372      -0.00231963
C        3.68067784       6.30038185      10.00000000       1.37667333      -0.77548479       0.00753361
C        4.95710118       6.95791183      10.00000000       0.09880811      -0.40350979       0.00159556
C        4.99842492       8.37232189      10.00000000       0.05856124      -0.46387043       0.00019491
C        6.25024099       9.03652569      10.00000000      -0.16429874       0.08534025      -0.00026672
C        6.19948042      10.45238139      10.00000000       0.42265297       0.18937746       0.00019453
Pt       0.64722720       6.58994552      10.00000000      -0.00220169       0.00059856      -0.23713275
H        0.64722720       6.58994552      12.20000000       0.00001857      -0.00001507      -0.65017655
H        0.64722720       6.58994552      12.94000000       0.00000969      -0.00000513       1.21658307
32
Lattice="9.84 0.0 0.0 4.92 8.521689973238876 0.0 0.0 0.0 20.0" Properties=species:S:1:pos:R:3:forces:R:3 energy=-252.7367899861247 pbc="T T F"
C       -4.90407279       2.72825394      10.00000000      -0.26409629      -0.20515175      -0.00244578
C       -4.95509823       4.14406101      10.00000000       0.40684221      -0.08278074      -0.05446761
C       -3.70324291       4.80768718      10.00000000      -0.02732930       0.25372103       0.00899990
C       -3.66224620       6.22199923      10.00000000       0.47754966       0.05916784      -0.02057166
C       -2.38584244       6.87990464      10.00000000      -0.16870924       0.22724644      -0.03057401
C       -2.34260280       8.31639578      10.00000000       0.07271446       0.11989283       0.02868162
C       -1.12011677       9.07272175      10.00000000       0.00281207      -0.17538524      -0.03628513
C       -1.18885840      10.50678026      10.00000000      -0.07023947      -0.05447211      -0.00973922
C       -2.43055663       2.68615078      10.00000000       0.13866579      -0.21509043      -0.00008509
C       -2.47816054       4.08081684      10.00000000      -0.09360572       0.13037398       0.02092843
C       -1.24980115       4.73157830      10.00000000      -0.14349083       0.44000111      -0.03528094
N       -1.23757445       6.11658101      10.00000000      -0.54857786      -1.14060487      -0.44378604
N        0.11440283       8.45981585      10.00000000      -0.49144907       1.05200752      -0.32626943
C        1.30792642       9.16224746      10.00000000       0.22345031      -1.16048164       0.04780375
C        1.25803020      10.55216557      10.00000000      -0.00100953       0.58094430       0.07071108
C        0.03720704       2.62807678      10.00000000      -0.06375283      -0.16557425       0.03528573
C       -0.01311689       4.01783507      10.00000000       0.63147274      -0.03335609       0.03578378
N        1.17960686       4.71982639      10.00000000       0.06596477      -0.63244075      -0.57436091
C        2.54438514       8.44872938      10.00000000      -1.79122552      -0.93176710      -0.22539789
C        3.77341498       9.09884503      10.00000000      -0.93227997      -1.66692020       0.00362438
C        3.72607066      10.49363473      10.00000000      -0.09151782       0.23654564       0.00040753
C        2.48403183       2.67372211      10.00000000      -0.09542514      -0.01418539       0.06515128
C        2.41500233       4.10756281      10.00000000      -0.02375963      -0.48589759       0.10517748
C        3.63739856       4.86418701      10.00000000      -0.54961305       1.47495892      -0.10567067
C        3.68067784       6.30038185      10.00000000       1.45627316      -0.52482251       0.18909344
C        4.95710118       6.95791183      10.00000000      -1.62869850      -0.41598185      -0.05244584
C        4.99842492       8.37232189      10.00000000       0.79669864       0.24385380       0.00289077
C        6.25024099       9.03652569      10.00000000      -0.29525386      -0.31387290      -0.01121691
C        6.19948042      10.45238139      10.00000000       0.18295038       0.14423329      -0.01271769
Pt       0.64722720       6.58994552      10.00000000       2.51053920       3.13618953      -7.88941422
H        0.64722720       6.58994552      11.40000000       0.10644745       0.02470677       5.21239946
H        0.64722720       6.58994552      12.14000000       0.21801230       0.09488481       4.01030016
33
Lattice="9.84 0.0 0.0 4.92 8.521689973238876 0.0 0.0 0.0 20.0" Properties=species:S:1:pos:R:3:forces:R:3 energy=-274.41457162197224 pbc="T T F"
C       -4.90407279       2.72825394      10.00000000      -0.36659919      -0.16406068      -0.00053225
C       -4.95509823       4.14406101      10.00000000       0.14591601      -0.08427155       0.00057380
C       -3.70324291       4.80768718      10.00000000      -0.04604871       0.37695454       0.00069473
C       -3.66224620       6.22199923      10.00000000      -0.11919342       0.34005100      -0.00764193
C       -2.38584244       6.87990464      10.00000000      -1.32739602       0.84669524       0.07450038
C       -2.34260280       8.31639578      10.00000000      -0.44187278       0.30606699      -0.02364318
C       -1.12011677       9.07272175      10.00000000      -1.42639273       0.74050720       0.06525578
C       -1.18885840      10.50678026      10.00000000      -0.35884804      -0.07744228      -0.00273803
C       -2.43055663       2.68615078      10.00000000      -0.01228758       0.01868591      -0.00191273
C       -2.47816054       4.08081684      10.00000000      -0.15994829      -0.25978970       0.00940447
C       -1.24980115       4.73157830      10.00000000      -0.66630163      -0.96724003       0.01638075
C       -1.23757445       6.11658101      10.00000000       0.14578859      -0.01011684      -0.73410159
C        0.11440283       8.45981585      10.00000000       0.15564825      -0.42575452      -0.58688211
C        1.30792642       9.16224746      10.00000000       0.49275019       1.09683385       0.01682659
C        1.25803020      10.55216557      10.00000000       0.15262196       0.23923655       0.03881776
C        0.03720704       2.62807678      10.00000000      -0.15623494      -0.24862704       0.03870186
C       -0.01311689       4.01783507      10.00000000      -0.52406230      -1.10098095       0.01685955
C        1.17960686       4.71982639      10.00000000      -0.09766567       0.44899680      -0.58593303
C        2.53175081       7.06378150      10.00000000      -0.11965203      -0.00496617      -0.73511824
C        2.54438514       8.44872938      10.00000000       0.68013479       0.95941902       0.01648364
C        3.77341498       9.09884503      10.00000000       0.14746794       0.27246335       0.00971881
C        3.72607066      10.49363473      10.00000000       0.00844638      -0.02298069      -0.00190947
C        2.48403183       2.67372211      10.00000000       0.37042022       0.07585877      -0.00280822
C        2.41500233       4.10756281      10.00000000       1.41033559      -0.72677192       0.06514107
C        3.63739856       4.86418701      10.00000000       0.44412496      -0.31698471      -0.02362269
C        3.68067784       6.30038185      10.00000000       1.30480820      -0.83215930       0.07448108
C        4.95710118       6.95791183      10.00000000       0.12555013      -0.33108698      -0.00760930
C        4.99842492       8.37232189      10.00000000       0.04937232      -0.37799468       0.00068853
C        6.25024099       9.03652569      10.00000000      -0.15414360       0.07857686       0.00060544
C        6.19948042      10.45238139      10.00000000       0.35370780       0.15164473      -0.00051687
Pt       0.64722720       6.58994552      10.00000000      -0.00288184      -0.00033378       2.18917814
H        0.09722720       6.58994552      11.80000000       2.17918388      -0.03366620       0.02209731
H        1.19722720       6.58994552      11.80000000      -2.17928849       0.03301052       0.02196314
33
Lattice="9.84 0.0 0.0 4.92 8.521689973238876 0.0 0.0 0.0 20.0" Properties=species:S:1:pos:R:3:forces:R:3 energy=-271.2573410413129 pbc="T T F"
C       -4.90407279       2.72825394      10.00000000      -0.38538708      -0.32097365      -0.00003995
C       -4.95509823       4.14406101      10.00000000      -0.01938828       0.35875413       0.00025939
C       -3.70324291       4.80768718      10.00000000      -0.01682071       0.24186377      -0.00011964
C       -3.66224620       6.22199923      10.00000000      -0.16939964       0.19961354       0.00024741
C       -2.38584244       6.87990464      10.00000000      -1.02343097       0.74347676       0.00007399
C       -2.34260280       8.31639578      10.00000000      -0.45550034       0.00695041      -0.00003794
C       -1.12011677       9.07272175      10.00000000       0.03573194       0.49477381       0.00021804
C       -1.18885840      10.50678026      10.00000000      -0.04172641      -0.01259171       0.00021337
C       -2.43055663       2.68615078      10.00000000      -0.27652206       0.09798646       0.00010544
C       -2.47816054       4.08081684      10.00000000      -0.27461599      -0.30301700      -0.00036171
C       -1.24980115       4.73157830      10.00000000      -1.10374895       0.44196584      -0.00010927
C       -1.23757445       6.11658101      10.00000000       1.13688077      -0.80487409       0.00357699
N        0.11440283       8.45981585      10.00000000       0.54653512       1.56611660       0.00164513
C        1.30792642       9.16224746      10.00000000      -2.29498260       0.11124852       0.00002393
C        1.25803020      10.55216557      10.00000000       0.08529089       0.25804253       0.00007626
C        0.03720704       2.62807678      10.00000000      -0.10151606      -0.37001580      -0.00035422
C       -0.01311689       4.01783507      10.00000000       0.89516024      -0.78300377      -0.00010886
C        1.17960686       4.71982639      10.00000000      -1.23498809       0.63688434       0.00358000
N        2.53175081       7.06378150      10.00000000       1.14545759       1.23139900       0.00166804
C        2.54438514       8.44872938      10.00000000       1.21973451      -1.96670545       0.00001711
C        3.77341498       9.09884503      10.00000000       0.18286960       0.25308338       0.00007330
C        3.72607066      10.49363473      10.00000000       0.21255099      -0.20485284       0.00010419
C        2.48403183       2.67372211      10.00000000       0.22922917      -0.05668699       0.00025042
C        2.41500233       4.10756281      10.00000000       1.16806911      -0.49018123       0.00006622
C        3.63739856       4.86418701      10.00000000       0.22256555      -0.42502927      -0.00004501
C        3.68067784       6.30038185      10.00000000       0.38570040       0.32039477       0.00024056
C        4.95710118       6.95791183      10.00000000       0.02856345      -0.07242602       0.00020925
C        4.99842492       8.37232189      10.00000000      -0.07074350      -0.47818449      -0.00004448
C        6.25024099       9.03652569      10.00000000       0.31311374       0.15841281       0.00026879
C        6.19948042      10.45238139      10.00000000       0.21194555       0.11242112      -0.00012145
Pt       0.64722720       6.58994552      10.00000000      -0.53766913      -0.92978771       0.00863967
H        0.64722720       6.58994552      14.00000000      -0.00305100      -0.00528703      -0.53786039
H        0.64722720       6.58994552      14.74000000       0.00156850       0.00272495       0.52488582
33
Lattice="9.84 0.0 0.0 4.92 8.521689973238876 0.0 0.0 0.0 20.0" Properties=species:S:1:pos:R:3:forces:R:3 energy=-276.1072631496817 pbc="T T F"
C       -4.90407279       2.72825394      10.00000000      -0.43697685      -0.20470634      -0.00002444
C       -4.95509823       4.14406101      10.00000000       0.15013669      -0.08760997       0.00019536
C       -3.70324291       4.80768718      10.00000000      -0.05335485       0.46552845      -0.00002964
C       -3.66224620       6.22199923      10.00000000      -0.09025299       0.41470237       0.00007183
C       -2.38584244       6.87990464      10.00000000      -1.39758172       0.78314659      -0.00005420
C       -2.34260280       8.31639578      10.00000000      -0.41810167       0.25335064       0.00023529
C       -1.12011677       9.07272175      10.00000000      -1.40038649       0.80846479      -0.00006280
C       -1.18885840      10.50678026      10.00000000      -0.36349651      -0.12091108       0.00006768
C       -2.43055663       2.68615078      10.00000000       0.01789649      -0.00382587       0.00009764
C       -2.47816054       4.08081684      10.00000000      -0.21077535      -0.29595044      -0.00025943
C       -1.24980115       4.73157830      10.00000000      -0.66317708      -0.77476259      -0.00005933
C       -1.23757445       6.11658101      10.00000000       0.81819905       0.34466806       0.00202520
C        0.11440283       8.45981585      10.00000000       0.13589434      -0.91036113       0.00202406
C        1.30792642       9.16224746      10.00000000       0.34629423       1.00572736      -0.00006713
C        1.25803020      10.55216557      10.00000000       0.12410651       0.30159043      -0.00025065
C        0.03720704       2.62807678      10.00000000      -0.12779068      -0.31104592      -0.00025298
C       -0.01311689       4.01783507      10.00000000      -0.37760787      -1.01011934      -0.00006457
C        1.17960686       4.71982639      10.00000000      -0.07741977       0.93298632       0.00202264
C        2.53175081       7.06378150      10.00000000      -0.79306369      -0.36051509       0.00201901
C        2.54438514       8.44872938      10.00000000       0.67711617       0.76756268      -0.00006156
C        3.77341498       9.09884503      10.00000000       0.19812299       0.30853286      -0.00025839
C        3.72607066      10.49363473      10.00000000      -0.02176050      -0.00050520       0.00010050
C        2.48403183       2.67372211      10.00000000       0.37518284       0.11935038       0.00006355
C        2.41500233       4.10756281      10.00000000       1.38386087      -0.79481772      -0.00005735
C        3.63739856       4.86418701      10.00000000       0.42054722      -0.26414704       0.00023399
C        3.68067784       6.30038185      10.00000000       1.37510330      -0.76905267      -0.00005053
C        4.95710118       6.95791183      10.00000000       0.09654595      -0.40573789       0.00006785
C        4.99842492       8.37232189      10.00000000       0.05675058      -0.46664852      -0.00002087
C        6.25024099       9.03652569      10.00000000      -0.15849834       0.08201072       0.00019380
C        6.19948042      10.45238139      10.00000000       0.42414881       0.19233571      -0.00002519
Pt       0.64722720       6.58994552      10.00000000      -0.00218312       0.00060608       0.00868756
H        0.64722720       6.58994552      14.00000000      -0.00000486      -0.00000409      -0.53222561
H        0.64722720       6.58994552      14.74000000      -0.00000749      -0.00001003       0.51999939
33
Lattice="9.84 0.0 0.0 4.92 8.521689973238876 0.0 0.0 0.0 20.0" Properties=species:S:1:pos:R:3:forces:R:3 energy=-271.1125304311177 pbc="T T F"
C       -4.90407279       2.72825394      10.00000000      -0.23151867      -0.17339785      -0.00011907
C       -4.95509823       4.14406101      10.00000000      -0.17645047       0.13090885      -0.00099044
C       -3.70324291       4.80768718      10.00000000       0.07320545       0.40968148      -0.00129875
C       -3.66224620       6.22199923      10.00000000       0.11012706      -0.05831263       0.00483399
C       -2.38584244       6.87990464      10.00000000      -0.30817135      -0.06450692       0.00447530
C       -2.34260280       8.31639578      10.00000000      -0.29636395       0.25848809      -0.00001954
C       -1.12011677       9.07272175      10.00000000      -1.21064239       0.88488646       0.00528715
C       -1.18885840      10.50678026      10.00000000      -0.37224537      -0.13379015      -0.00004669
C       -2.43055663       2.68615078      10.00000000      -0.22459555       0.19488115       0.00193974
C       -2.47816054       4.08081684      10.00000000      -0.30752255      -0.02042035       0.01202146
C       -1.24980115       4.73157830      10.00000000      -1.37217416       1.66917121       0.00258679
N       -1.23757445       6.11658101      10.00000000      -0.44481894      -1.66658902      -0.13150208
C        0.11440283       8.45981585      10.00000000       0.91685000      -0.08529932      -0.12352881
C        1.30792642       9.16224746      10.00000000      -1.08007063       0.33259363       0.00163595
C        1.25803020      10.55216557      10.00000000       0.31192542       0.45771424       0.00683193
C        0.03720704       2.62807678      10.00000000      -0.31503254      -0.46871099       0.00684146
C       -0.01311689       4.01783507      10.00000000       1.04797676      -0.33574732       0.00160616
C        1.17960686       4.71982639      10.00000000      -0.85757477       0.10810914      -0.12351249
N        2.53175081       7.06378150      10.00000000       0.47024629       1.64936760      -0.13137239
C        2.54438514       8.44872938      10.00000000       1.38492253      -1.67766657       0.00258836
C        3.77341498       9.09884503      10.00000000       0.29541212       0.03221578       0.01202559
C        3.72607066      10.49363473      10.00000000       0.22059769      -0.19844707       0.00194686
C        2.48403183       2.67372211      10.00000000       0.38390853       0.13216337      -0.00004124
C        2.41500233       4.10756281      10.00000000       1.19457899      -0.87135199       0.00529431
C        3.63739856       4.86418701      10.00000000       0.29897691      -0.26910073      -0.00003101
C        3.68067784       6.30038185      10.00000000       0.28650702       0.07718558       0.00446599
C        4.95710118       6.95791183      10.00000000      -0.10396297       0.06750299       0.00481557
C        4.99842492       8.37232189      10.00000000      -0.06977095      -0.41020435      -0.00130177
C        6.25024099       9.03652569      10.00000000       0.16765901      -0.13643506      -0.00098685
C        6.19948042      10.45238139      10.00000000       0.21796324       0.16110679      -0.00012816
Pt       0.64722720       6.58994552      10.00000000      -0.00294299       0.00014822      -0.07187659
H        0.64722720       6.58994552      12.20000000       0.00005060       0.00000552      -0.76800693
H        0.64722720       6.58994552      12.94000000       0.00002703       0.00000003       1.27116514
32
Lattice="9.84 0.0 0.0 4.92 8.521689973238876 0.0 0.0 0.0 20.0" Properties=species:S:1:pos:R:3:forces:R:3 energy=-260.2346732673735 pbc="T T F"
C       -4.90407279       2.72825394      10.00000000      -0.59491423      -0.41044883       0.00107632
C       -4.95509823       4.14406101      10.00000000       0.79570596       0.34934578       0.05118782
C       -3.70324291       4.80768718      10.00000000      -0.13960185       0.39996966      -0.00502333
C       -3.66224620       6.22199923      10.00000000       0.26369140      -0.12035141       0.00482835
C       -2.38584244       6.87990464      10.00000000      -0.94328070       1.29548451       0.08285170
C       -2.34260280       8.31639578      10.00000000      -0.23063435       0.33931386      -0.00818111
C       -1.12011677       9.07272175      10.00000000      -0.23888199       0.36553778       0.02241728
C       -1.18885840      10.50678026      10.00000000      -0.17647363      -0.17701067       0.01029927
C       -2.43055663       2.68615078      10.00000000       0.02456351      -0.24643587       0.00756830
C       -2.47816054       4.08081684      10.00000000      -0.07986628       0.07870843       0.06955690
C       -1.24980115       4.73157830      10.00000000      -0.27137912      -0.58565165       0.04275004
C       -1.23757445       6.11658101      10.00000000       1.15867257      -0.99175220      -0.93925190
N        0.11440283       8.45981585      10.00000000      -0.78119279       1.57600426      -0.56614031
C        1.30792642       9.16224746      10.00000000      -0.45123858      -1.44405672      -0.03429481
C        1.25803020      10.55216557      10.00000000       0.36107234       0.79610414      -0.03882358
C        0.03720704       2.62807678      10.00000000      -0.06004409      -0.42326926       0.12329770
C       -0.01311689       4.01783507      10.00000000       0.01009214      -0.68579983       0.05406352
C        1.17960686       4.71982639      10.00000000      -0.37084180       0.27935427      -0.71407399
C        2.54438514       8.44872938      10.00000000      -0.57913096      -0.91851442       0.03039486
C        3.77341498       9.09884503      10.00000000      -0.75433336      -1.73905043      -0.00498558
C        3.72607066      10.49363473      10.00000000      -0.17374777       0.25381249       0.00110226
C        2.48403183       2.67372211      10.00000000       0.06328723      -0.16226464      -0.00016506
C        2.41500233       4.10756281      10.00000000       0.68984675      -0.64474244      -0.00873098
C        3.63739856       4.86418701      10.00000000      -0.80154815       1.56432587      -0.00025077
C        3.68067784       6.30038185      10.00000000       1.71110949      -0.46761023      -0.13533928
C        4.95710118       6.95791183      10.00000000      -1.98594281      -0.23943172       0.00329866
C        4.99842492       8.37232189      10.00000000       0.76651933       0.15949151      -0.00853879
C        6.25024099       9.03652569      10.00000000      -0.14819613      -0.06876868       0.00384951
C        6.19948042      10.45238139      10.00000000       0.25595063       0.18876693       0.00020658
Pt       0.64722720       6.58994552      10.00000000       2.05594541       1.62686526       1.36241544
H        0.09722720       6.58994552      11.80000000       2.82699335       0.03140588       0.10656677
H        1.19722720       6.58994552      11.80000000      -2.19546425       0.02794380       0.47582876
32
Lattice="9.84 0.0 0.0 4.92 8.521689973238876 0.0 0.0 0.0 20.0" Properties=species:S:1:pos:R:3:forces:R:3 energy=-261.8613442349249 pbc="T T F"
C       -4.90407279       2.72825394      10.00000000      -0.62473925      -0.42601094      -0.00086884
C       -4.95509823       4.14406101      10.00000000       0.80696659       0.38043298       0.00217927
C       -3.70324291       4.80768718      10.00000000      -0.16725726       0.42644878      -0.00053749
C       -3.66224620       6.22199923      10.00000000       0.26924652      -0.09284169       0.00312157
C       -2.38584244       6.87990464      10.00000000      -1.09218267       1.32040924       0.00314809
C       -2.34260280       8.31639578      10.00000000      -0.26710876       0.15646091      -0.00076832
C       -1.12011677       9.07272175      10.00000000      -0.03177023       0.49235590      -0.00051924
C       -1.18885840      10.50678026      10.00000000      -0.19959601      -0.18818457       0.00180396
C       -2.43055663       2.68615078      10.00000000      -0.01892163      -0.21900865       0.00122132
C       -2.47816054       4.08081684      10.00000000      -0.06063325       0.06396572       0.01260950
C       -1.24980115       4.73157830      10.00000000      -0.40738317      -0.45894985      -0.00313707
C       -1.23757445       6.11658101      10.00000000       2.24590270      -0.73149674      -0.10638095
N        0.11440283       8.45981585      10.00000000      -0.71287108       1.04813980      -0.06782736
C        1.30792642       9.16224746      10.00000000      -0.57268840      -1.39059872      -0.00505757
C        1.25803020      10.55216557      10.00000000       0.36551773       0.85270495      -0.00071053
C        0.03720704       2.62807678      10.00000000      -0.09341125      -0.47952480       0.01092257
C       -0.01311689       4.01783507      10.00000000       0.05764104      -0.72533892       0.00144089
C        1.17960686       4.71982639      10.00000000      -0.27331735       0.82472885      -0.10475153
C        2.54438514       8.44872938      10.00000000      -0.57473025      -1.22968730      -0.00119037
C        3.77341498       9.09884503      10.00000000      -0.73603578      -1.65369621      -0.00022651
C        3.72607066      10.49363473      10.00000000      -0.16159763       0.22805871      -0.00009083
C        2.48403183       2.67372211      10.00000000       0.14538092      -0.08278891       0.00576782
C        2.41500233       4.10756281      10.00000000       0.58386175      -0.78320430       0.00221484
C        3.63739856       4.86418701      10.00000000      -0.77926367       1.68184423      -0.00386263
C        3.68067784       6.30038185      10.00000000       1.66140806      -0.46001950      -0.00753701
C        4.95710118       6.95791183      10.00000000      -1.98172443      -0.26658889      -0.00075372
C        4.99842492       8.37232189      10.00000000       0.76395577       0.07822537      -0.00142711
C        6.25024099       9.03652569      10.00000000      -0.18557350      -0.07320915      -0.00097599
C        6.19948042      10.45238139      10.00000000       0.28685552       0.21380887      -0.00074258
Pt       0.64722720       6.58994552      10.00000000       1.71391601       1.48484698      -0.28461548
H        0.64722720       6.58994552      12.20000000       0.00931357      -0.01705075      -0.67373004
H        0.64722720       6.58994552      12.94000000       0.03065246       0.02838497       1.21111516
33
Lattice="9.84 0.0 0.0 4.92 8.521689973238876 0.0 0.0 0.0 20.0" Properties=species:S:1:pos:R:3:forces:R:3 energy=-268.0587788604282 pbc="T T F"
C       -4.90407279       2.72825394      10.00000000      -0.11106640      -0.14072650      -0.00346771
C       -4.95509823       4.14406101      10.00000000      -0.24149537      -0.08518103      -0.00192167
C       -3.70324291       4.80768718      10.00000000       0.11361079       0.17694147      -0.00262241
C       -3.66224620       6.22199923      10.00000000      -0.01556532       0.28292341       0.00785897
C       -2.38584244       6.87990464      10.00000000      -0.19242927      -0.47087878      -0.00399577
C       -2.34260280       8.31639578      10.00000000       0.03617855       0.08171216       0.00647057
C       -1.12011677       9.07272175      10.00000000       0.06881223       0.10205194      -0.00523118
C       -1.18885840      10.50678026      10.00000000       0.04521080       0.00327524       0.01192722
C       -2.43055663       2.68615078      10.00000000      -0.01151886       0.02566783       0.00087209
C       -2.47816054       4.08081684      10.00000000      -0.23667946      -0.13948904       0.01042638
C       -1.24980115       4.73157830      10.00000000      -0.53754000       0.99930259       0.01812915
N       -1.23757445       6.11658101      10.00000000      -1.52430478      -0.63743360      -0.25233499
N        0.11440283       8.45981585      10.00000000       0.55693195       1.01200499      -0.28080934
C        1.30792642       9.16224746      10.00000000      -0.97216345       0.50515521       0.01934643
C        1.25803020      10.55216557      10.00000000      -0.22273232       0.08186823       0.02669618
C        0.03720704       2.62807678      10.00000000      -0.00664629      -0.08959921       0.01447768
C       -0.01311689       4.01783507      10.00000000       1.03612836      -0.04112511       0.01658374
N        1.17960686       4.71982639      10.00000000      -0.46052749      -0.33849392      -0.29057767
C        2.53175081       7.06378150      10.00000000      -1.17607863       0.22288952      -0.30671045
C        2.54438514       8.44872938      10.00000000       0.17134705       0.01349311       0.01919105
C        3.77341498       9.09884503      10.00000000       0.09578510       0.41861912       0.01825627
C        3.72607066      10.49363473      10.00000000       0.24576391      -0.08100274       0.00166170
C        2.48403183       2.67372211      10.00000000      -0.05629114       0.07490636       0.01370309
C        2.41500233       4.10756281      10.00000000       0.32850108      -0.22260991       0.00577273
C        3.63739856       4.86418701      10.00000000       0.33969432      -0.36191372       0.00475733
C        3.68067784       6.30038185      10.00000000       0.88131185      -0.68097884       0.01094584
C        4.95710118       6.95791183      10.00000000       0.19996254      -0.18979270       0.00587825
C        4.99842492       8.37232189      10.00000000       0.03099225      -0.16528182      -0.00119782
C        6.25024099       9.03652569      10.00000000       0.03796021      -0.10652014      -0.00142016
C        6.19948042      10.45238139      10.00000000       0.13023114       0.10947275      -0.00413772
Pt       0.64722720       6.58994552      10.00000000       1.45895977      -0.36287023      -1.21931142
H        0.64722720       6.58994552      11.80000000       0.02929628       0.00691331      -0.17992118
H        0.64722720       6.58994552      12.54000000      -0.03730141      -0.00267080       2.33754028
33
Lattice="9.84 0.0 0.0 4.92 8.521689973238876 0.0 0.0 0.0 20.0" Properties=species:S:1:pos:R:3:forces:R:3 energy=-266.0173018766586 pbc="T T F"
C       -4.90407279       2.72825394      10.00000000       0.00364007      -0.01833179      -0.00094240
C       -4.95509823       4.14406101      10.00000000      -0.00646267       0.00310397      -0.00016483
C       -3.70324291       4.80768718      10.00000000       0.00518755      -0.01148495      -0.00106776
C       -3.66224620       6.22199923      10.00000000      -0.01709563       0.03764634       0.00081955
C       -2.38584244       6.87990464      10.00000000       0.00466924      -0.02056824      -0.00451444
C       -2.34260280       8.31639578      10.00000000      -0.00971174       0.01838850       0.00330504
C       -1.12011677       9.07272175      10.00000000       0.00438667      -0.00761183      -0.00336000
C       -1.18885840      10.50678026      10.00000000      -0.00253915       0.00500507       0.00099716
C       -2.43055663       2.68615078      10.00000000      -0.00609760       0.00996787      -0.00102128
C       -2.47816054       4.08081684      10.00000000       0.00590180       0.00513409      -0.00078230
C       -1.24980115       4.73157830      10.00000000       0.02972970       0.00245463       0.00286360
N       -1.23757445       6.11658101      10.00000000      -0.03025481      -0.00084206      -0.00128099
N        0.11440283       8.45981585      10.00000000       0.00916359       0.00590368      -0.00464910
C        1.30792642       9.16224746      10.00000000       0.01312244       0.01455737       0.00352670
C        1.25803020      10.55216557      10.00000000      -0.02841813      -0.03637110      -0.00028843
C        0.03720704       2.62807678      10.00000000       0.02458548       0.02681663      -0.00028461
C       -0.01311689       4.01783507      10.00000000      -0.04218766      -0.01789238       0.00354879
N        1.17960686       4.71982639      10.00000000       0.04490720       0.02213463      -0.00468436
N        2.53175081       7.06378150      10.00000000       0.05694313      -0.01727739      -0.00130733
C        2.54438514       8.44872938      10.00000000      -0.01756961      -0.01051787       0.00284159
C        3.77341498       9.09884503      10.00000000      -0.01755366       0.00623460      -0.00077934
C        3.72607066      10.49363473      10.00000000       0.00101826      -0.01341386      -0.00101042
C        2.48403183       2.67372211      10.00000000       0.01348017      -0.00659118       0.00100215
C        2.41500233       4.10756281      10.00000000      -0.01762898       0.01827461      -0.00336156
C        3.63739856       4.86418701      10.00000000       0.01180104      -0.02928737       0.00330810
C        3.68067784       6.30038185      10.00000000      -0.02721252       0.03458694      -0.00450131
C        4.95710118       6.95791183      10.00000000       0.02341561      -0.02819910       0.00082110
C        4.99842492       8.37232189      10.00000000      -0.00207220       0.01078976      -0.00106910
C        6.25024099       9.03652569      10.00000000      -0.00175516      -0.00892159      -0.00016345
C        6.19948042      10.45238139      10.00000000      -0.01719439       0.00644095      -0.00094118
Pt       0.64722720       6.58994552      10.00000000      -0.00248523      -0.00023390      -0.11664701
H        0.27722720       6.58994552      13.20000000      -0.48691056       0.00176407       0.06586675
H        1.01722720       6.58994552      13.20000000       0.48688920      -0.00174099       0.06583438
33
Lattice="9.84 0.0 0.0 4.92 8.521689973238876 0.0 0.0 0.0 20.0" Properties=species:S:1:pos:R:3:forces:R:3 energy=-268.6764781457738 pbc="T T F"
C       -4.90407279       2.72825394      10.00000000      -0.12676630      -0.13432827      -0.00075997
C       -4.95509823       4.14406101      10.00000000      -0.22774602      -0.09263414      -0.00011705
C       -3.70324291       4.80768718      10.00000000       0.09756500       0.19689810      -0.00076256
C       -3.66224620       6.22199923      10.00000000      -0.00333240       0.28286667       0.00170121
C       -2.38584244       6.87990464      10.00000000      -0.22471325      -0.46525188      -0.00061311
C       -2.34260280       8.31639578      10.00000000       0.04681522       0.08325655       0.00200386
C       -1.12011677       9.07272175      10.00000000       0.04544404       0.11766093      -0.00091051
C       -1.18885840      10.50678026      10.00000000       0.04560794      -0.01194951       0.00179876
C       -2.43055663       2.68615078      10.00000000      -0.01395963       0.02379820      -0.00032645
C       -2.47816054       4.08081684      10.00000000      -0.22409508      -0.14285036       0.00081447
C       -1.24980115       4.73157830      10.00000000      -0.57654821       1.04241458       0.00407202
N       -1.23757445       6.11658101      10.00000000      -1.33958429      -0.61509798      -0.03136310
N        0.11440283       8.45981585      10.00000000       0.60909262       0.80231615      -0.03065113
C        1.30792642       9.16224746      10.00000000      -0.99343090       0.50819698       0.00329272
C        1.25803020      10.55216557      10.00000000      -0.21829411       0.07891927       0.00251536
C        0.03720704       2.62807678      10.00000000      -0.01280256      -0.08878658       0.00153499
C       -0.01311689       4.01783507      10.00000000       1.09140962      -0.06599664       0.00326981
N        1.17960686       4.71982639      10.00000000      -0.54665140      -0.10799311      -0.03216366
C        2.53175081       7.06378150      10.00000000      -1.39240917       0.17850973      -0.03172103
C        2.54438514       8.44872938      10.00000000       0.20863494      -0.00438252       0.00146948
C        3.77341498       9.09884503      10.00000000       0.08864806       0.42560914       0.00197142
C        3.72607066      10.49363473      10.00000000       0.26499205      -0.09153473       0.00004413
C        2.48403183       2.67372211      10.00000000      -0.06455604       0.07735494       0.00188378
C        2.41500233       4.10756281      10.00000000       0.31928022      -0.24759064       0.00055923
C        3.63739856       4.86418701      10.00000000       0.34213063      -0.31956340       0.00229026
C        3.68067784       6.30038185      10.00000000       0.93207477      -0.70216370      -0.00115227
C        4.95710118       6.95791183      10.00000000       0.18553574      -0.20453592       0.00153740
C        4.99842492       8.37232189      10.00000000       0.03965925      -0.15840773      -0.00023583
C        6.25024099       9.03652569      10.00000000       0.03449964      -0.11107398      -0.00004297
C        6.19948042      10.45238139      10.00000000       0.13763788       0.10607901      -0.00116247
Pt       0.64722720       6.58994552      10.00000000       1.47557467      -0.36150628      -0.05893385
H        0.64722720       6.58994552      12.60000000       0.01305466       0.00282386      -0.65417521
H        0.64722720       6.58994552      13.34000000      -0.00983363      -0.00232752       0.81733511
31
Lattice="9.84 0.0 0.0 4.92 8.521689973238876 0.0 0.0 0.0 20.0" Properties=species:S:1:pos:R:3:forces:R:3 energy=-255.87118030025184 pbc="T T F"
C       -4.87426994       2.71995808      10.03886131      -2.03254634      -0.12890460      -1.69514712
C       -4.86371644       4.13001181       9.98595178      -2.60808074       2.45348935      -0.67854559
C       -3.60849014       4.85373326       9.97183154      -3.29943396      -5.52909284       0.09774415
C       -3.62969260       6.19419417       9.97205621      -1.45576958       0.78532743      -0.36503887
C       -2.37132470       6.76510783       9.89650493      -6.46710143       9.52811994       0.91653942
C       -2.37634005       8.25562591      10.01885484      -0.40637933      -0.75513680      -0.11121216
C       -1.17459821       8.98798353      10.08793893       2.42635620       1.70082053      -2.15063962
C       -1.20240498      10.51083195       9.91451511       0.69162716      -0.77577176       2.26831982
C       -2.46321959       2.69280614       9.93094039       0.53731290      -0.51373369       0.79401481
C       -2.45561866       4.04477852       9.98249838       0.51207690       4.67443846      -0.11599056
C       -1.28590355       4.84271499       9.99919017       2.10288858      -7.32569165      -0.10560747
N       -1.30103711       6.16593370       9.92674938       7.08424964      -3.92273950       0.29755683
N        0.12693465       8.34223564       9.92030884      -0.77796491       8.96139661       1.14772338
C        1.31973809       9.20655545      10.01028210      -2.84477509      -4.14618330      -0.41898929
C        1.25109130      10.53409935       9.91128868      -0.52237149       1.68995118       0.92096052
C       -0.00598361       2.60043845      10.06342733       1.88501001      -3.05709422       0.09029886
C        0.00750021       3.91205266      10.01944504      -1.27429626       8.15069860       0.17285359
N        1.15650192       4.67921107      10.03670058      -1.08858162       1.33097946      -0.03293769
C        2.59361078       7.11965831       9.94964695      -3.28689614      -1.21630602       0.71231257
C        2.52583240       8.46860519      10.05853271       1.27168592       0.16619557      -1.09624886
C        3.74466453       9.08770549       9.93361990       1.15304086       4.00059464       1.66076233
C        3.65429826      10.54238628      10.08137440       2.10764195      -4.28059337      -1.61907113
C        2.47971122       2.73393408      10.02169816       0.06643499      -3.71298605      -0.09567782
C        2.37629514       4.12924655      10.09228219       3.29009687       1.40525637      -2.02856905
C        3.63524900       4.95806563       9.84281529       0.84034835      -7.08944372       2.39110651
C        3.72999199       6.30560467       9.98205956      -2.19430176       0.69054142      -0.70606456
C        4.96260683       6.83865770       9.98681969       3.43406473       7.23255600      -0.10371002
C        5.01985167       8.46099553       9.96890379      -5.45315151      -7.33267364      -0.05597903
C        6.20173137       9.00642027      10.05492413       5.60661364       2.19194227      -0.45937996
C        6.21920549      10.42059578      10.03079605      -1.23384125       2.04396430       0.55308026
Pt       0.65305185       6.64806422       9.95787681       1.93534393      -7.21865040      -0.06021423
33
Lattice="9.84 0.0 0.0 4.92 8.521689973238876 0.0 0.0 0.0 20.0" Properties=species:S:1:pos:R:3:forces:R:3 energy=-266.735050579234 pbc="T T F"
C       -4.90407279       2.72825394      10.00000000      -0.03954021      -0.12650317      -0.00730885
C       -4.95509823       4.14406101      10.00000000      -0.25759006      -0.06736124      -0.00364771
C       -3.70324291       4.80768718      10.00000000       0.13995741       0.05669905      -0.00534419
C       -3.66224620       6.22199923      10.00000000      -0.02959311       0.28492074       0.01922629
C       -2.38584244       6.87990464      10.00000000      -0.17484289      -0.32503164      -0.03763375
C       -2.34260280       8.31639578      10.00000000      -0.00278929       0.01822895       0.01761237
C       -1.12011677       9.07272175      10.00000000       0.06272735       0.04934264      -0.01072915
C       -1.18885840      10.50678026      10.00000000       0.05427195       0.04698119       0.02470196
C       -2.43055663       2.68615078      10.00000000       0.01329636       0.02759634       0.00457395
C       -2.47816054       4.08081684      10.00000000      -0.24614939      -0.09352017       0.02801145
C       -1.24980115       4.73157830      10.00000000      -0.23380766       0.51806591      -0.00305542
N       -1.23757445       6.11658101      10.00000000      -1.96863702      -0.58521245      -0.87449539
N        0.11440283       8.45981585      10.00000000       0.38559414       1.26705037      -0.69560703
C        1.30792642       9.16224746      10.00000000      -0.64534628       0.53727981       0.03510220
C        1.25803020      10.55216557      10.00000000      -0.24000262       0.03147593       0.06607221
C        0.03720704       2.62807678      10.00000000       0.02292398      -0.05363978       0.03695990
C       -0.01311689       4.01783507      10.00000000       0.51855668       0.03695788       0.03197176
N        1.17960686       4.71982639      10.00000000      -0.21937283      -0.59208877      -0.72388925
C        2.53175081       7.06378150      10.00000000      -0.52286734       0.26950909      -0.86708959
C        2.54438514       8.44872938      10.00000000      -0.07639410       0.28251378       0.02581894
C        3.77341498       9.09884503      10.00000000       0.08576620       0.36408584       0.03734555
C        3.72607066      10.49363473      10.00000000       0.16540613      -0.02917567       0.00587923
C        2.48403183       2.67372211      10.00000000      -0.03145441       0.09814485       0.03365185
C        2.41500233       4.10756281      10.00000000       0.51172986      -0.14179103       0.01719178
C        3.63739856       4.86418701      10.00000000       0.29721344      -0.54607200       0.00306732
C        3.68067784       6.30038185      10.00000000       0.72875185      -0.70231240       0.04066686
C        4.95710118       6.95791183      10.00000000       0.24185083      -0.12515954       0.00982238
C        4.99842492       8.37232189      10.00000000       0.01908281      -0.16560126      -0.00155710
C        6.25024099       9.03652569      10.00000000       0.02083381      -0.04948060      -0.00225550
C        6.19948042      10.45238139      10.00000000       0.07072690       0.06281599      -0.00867517
Pt       0.64722720       6.58994552      10.00000000       1.32016967      -0.39960376       1.58011923
H        0.09722720       6.58994552      11.80000000       2.67507659       0.05424601       0.74874025
H        1.19722720       6.58994552      11.80000000      -2.64240696      -0.00432987       0.46019764
33
Lattice="9.84 0.0 0.0 4.92 8.521689973238876 0.0 0.0 0.0 20.0" Properties=species:S:1:pos:R:3:forces:R:3 energy=-273.1176532125536 pbc="T T F"
C       -4.90407279       2.72825394      10.00000000      -0.36830407      -0.19839384      -0.00026474
C       -4.95509823       4.14406101      10.00000000       0.05711841       0.14052574      -0.00161170
C       -3.70324291       4.80768718      10.00000000      -0.00433645       0.29779638      -0.00235051
C       -3.66224620       6.22199923      10.00000000      -0.07695973       0.19513078       0.00876518
C       -2.38584244       6.87990464      10.00000000      -1.29136787       0.93989164       0.03256516
C       -2.34260280       8.31639578      10.00000000      -0.51542145       0.31974705      -0.01004813
C       -1.12011677       9.07272175      10.00000000      -1.40518804       0.86463305       0.03351237
C       -1.18885840      10.50678026      10.00000000      -0.34676449      -0.11726711       0.00132442
C       -2.43055663       2.68615078      10.00000000      -0.21117042       0.13323820       0.00141108
C       -2.47816054       4.08081684      10.00000000      -0.23350331      -0.28011962       0.03902087
C       -1.24980115       4.73157830      10.00000000      -0.84977717      -0.35238034       0.02171769
C       -1.23757445       6.11658101      10.00000000       1.41573506      -0.19645213      -0.42473882
C        0.11440283       8.45981585      10.00000000       0.43767128      -0.65121498      -0.32995518
C        1.30792642       9.16224746      10.00000000      -0.32967711       0.48041322       0.01217467
C        1.25803020      10.55216557      10.00000000       0.33350163       0.31878351       0.00682257
C        0.03720704       2.62807678      10.00000000      -0.19030002      -0.32124370       0.02894986
C       -0.01311689       4.01783507      10.00000000       0.11086853      -0.98998779       0.02126882
C        1.17960686       4.71982639      10.00000000      -0.56329209       0.49170768      -0.34952613
N        2.53175081       7.06378150      10.00000000       1.34836840       1.12285221      -0.34709451
C        2.54438514       8.44872938      10.00000000       1.26005980      -1.03227526      -0.00759946
C        3.77341498       9.09884503      10.00000000       0.22795788       0.01291914       0.02077359
C        3.72607066      10.49363473      10.00000000      -0.04794454      -0.06154031       0.00358039
C        2.48403183       2.67372211      10.00000000       0.45410774       0.13302975      -0.00534773
C        2.41500233       4.10756281      10.00000000       1.42252092      -0.83564049       0.02386310
C        3.63739856       4.86418701      10.00000000       0.07966826      -0.43297602      -0.00004456
C        3.68067784       6.30038185      10.00000000       0.38763366       0.40362118       0.00182823
C        4.95710118       6.95791183      10.00000000      -0.03747817      -0.07176433       0.00846178
C        4.99842492       8.37232189      10.00000000      -0.04507680      -0.50869568      -0.00205438
C        6.25024099       9.03652569      10.00000000       0.07810580       0.07306463      -0.00144012
C        6.19948042      10.45238139      10.00000000       0.31831123       0.15164000       0.00024238
Pt       0.64722720       6.58994552      10.00000000      -1.41515840      -0.01885905       0.02540237
H        0.22222720       6.58994552      12.20000000       2.00990137       0.02484990       0.55569199
H        1.07222720       6.58994552      12.20000000      -2.00480597      -0.03681245       0.62780612
33
Lattice="9.84 0.0 0.0 4.92 8.521689973238876 0.0 0.0 0.0 20.0" Properties=species:S:1:pos:R:3:forces:R:3 energy=-270.782985846558 pbc="T T F"
C       -4.90407279       2.72825394      10.00000000      -0.19141570      -0.22385272      -0.00115737
C       -4.95509823       4.14406101      10.00000000      -0.06946387       0.24740221       0.00153565
C       -3.70324291       4.80768718      10.00000000       0.04415073       0.25469121      -0.00255497
C       -3.66224620       6.22199923      10.00000000      -0.10752221      -0.02961050      -0.01737336
C       -2.38584244       6.87990464      10.00000000      -0.88705756       1.18640417       0.08761808
C       -2.34260280       8.31639578      10.00000000      -0.78711583       0.38455718      -0.00401594
C       -1.12011677       9.07272175      10.00000000      -1.37607374       0.58499337       0.09002517
C       -1.18885840      10.50678026      10.00000000      -0.25235581       0.00608423      -0.01016351
C       -2.43055663       2.68615078      10.00000000      -0.31900186       0.15855846      -0.00721538
C       -2.47816054       4.08081684      10.00000000      -0.24858376      -0.17347769      -0.00078904
C       -1.24980115       4.73157830      10.00000000      -0.83435149       0.25833785       0.04837570
C       -1.23757445       6.11658101      10.00000000      -0.17113673      -1.26942995      -0.70947700
C        0.11440283       8.45981585      10.00000000       0.44205825       0.71305734      -0.70637133
C        1.30792642       9.16224746      10.00000000      -0.45174628       0.18385858       0.02511748
C        1.25803020      10.55216557      10.00000000       0.27007502       0.48469016       0.02589402
C        0.03720704       2.62807678      10.00000000      -0.05232543      -0.39431643      -0.02901545
C       -0.01311689       4.01783507      10.00000000       0.61688228      -0.73474684       0.03852895
C        1.17960686       4.71982639      10.00000000      -0.42078657      -1.18118291      -0.47849085
N        2.53175081       7.06378150      10.00000000       2.35324878       1.84629599      -1.00063479
C        2.54438514       8.44872938      10.00000000       1.17462357      -0.99662293      -0.01535299
C        3.77341498       9.09884503      10.00000000       0.24556015      -0.00741797       0.06154522
C        3.72607066      10.49363473      10.00000000       0.03635098      -0.09664820      -0.00127772
C        2.48403183       2.67372211      10.00000000       0.27919679      -0.05190837      -0.03595017
C        2.41500233       4.10756281      10.00000000       0.98929510      -0.39950633       0.06967477
C        3.63739856       4.86418701      10.00000000       0.47544393      -0.09181932       0.00452959
C        3.68067784       6.30038185      10.00000000       0.52460434      -0.30318462       0.03790604
C        4.95710118       6.95791183      10.00000000      -0.08248216      -0.01258508       0.01781923
C        4.99842492       8.37232189      10.00000000      -0.04212368      -0.37263152      -0.00688901
C        6.25024099       9.03652569      10.00000000       0.17640119      -0.07397931       0.00507211
C        6.19948042      10.45238139      10.00000000       0.18561653       0.22571387       0.00172573
Pt       0.64722720       6.58994552      10.00000000      -1.18959236       0.09350597      -6.58482542
H        0.27722720       6.58994552      11.40000000      -5.90858984       0.01438111       4.52213719
H        1.01722720       6.58994552      11.40000000       5.58508619      -0.23153555       4.55920429
33
Lattice="9.84 0.0 0.0 4.92 8.521689973238876 0.0 0.0 0.0 20.0" Properties=species:S:1:pos:R:3:forces:R:3 energy=-273.78331363850737 pbc="T T F"
C       -4.90407279       2.72825394      10.00000000      -0.37071513      -0.20593007      -0.00012643
C       -4.95509823       4.14406101      10.00000000       0.04514950       0.14204679       0.00020230
C       -3.70324291       4.80768718      10.00000000       0.00456803       0.30471696      -0.00009772
C       -3.66224620       6.22199923      10.00000000      -0.07096146       0.20634033       0.00000345
C       -2.38584244       6.87990464      10.00000000      -1.27428278       0.90984934      -0.00014680
C       -2.34260280       8.31639578      10.00000000      -0.51860882       0.32215394       0.00009189
C       -1.12011677       9.07272175      10.00000000      -1.37226704       0.86885161      -0.00012558
C       -1.18885840      10.50678026      10.00000000      -0.35037112      -0.12131302       0.00005533
C       -2.43055663       2.68615078      10.00000000      -0.23141696       0.14687392       0.00003822
C       -2.47816054       4.08081684      10.00000000      -0.25636812      -0.29156760      -0.00041801
C       -1.24980115       4.73157830      10.00000000      -0.89797983      -0.23791248      -0.00025512
C       -1.23757445       6.11658101      10.00000000       1.57196531      -0.16210300       0.00278784
C        0.11440283       8.45981585      10.00000000       0.46863082      -0.72001301       0.00180596
C        1.30792642       9.16224746      10.00000000      -0.43012136       0.47866594      -0.00014330
C        1.25803020      10.55216557      10.00000000       0.33135361       0.33891870      -0.00014787
C        0.03720704       2.62807678      10.00000000      -0.18860441      -0.35683432      -0.00045310
C       -0.01311689       4.01783507      10.00000000       0.22175587      -0.97098303      -0.00022968
C        1.17960686       4.71982639      10.00000000      -0.57015822       0.57463436       0.00245749
N        2.53175081       7.06378150      10.00000000       1.19392608       1.05641845       0.00121045
C        2.54438514       8.44872938      10.00000000       1.28957486      -1.11761572      -0.00003061
C        3.77341498       9.09884503      10.00000000       0.24050958       0.01720819      -0.00010300
C        3.72607066      10.49363473      10.00000000      -0.03600241      -0.06244038       0.00004620
C        2.48403183       2.67372211      10.00000000       0.45892795       0.13727599       0.00000539
C        2.41500233       4.10756281      10.00000000       1.39732155      -0.83438792      -0.00003448
C        3.63739856       4.86418701      10.00000000       0.08496949      -0.43969561      -0.00004390
C        3.68067784       6.30038185      10.00000000       0.37461377       0.42881201       0.00008653
C        4.95710118       6.95791183      10.00000000      -0.03842351      -0.08077691       0.00009593
C        4.99842492       8.37232189      10.00000000      -0.04613036      -0.52439979      -0.00003126
C        6.25024099       9.03652569      10.00000000       0.07825176       0.06996582       0.00015694
C        6.19948042      10.45238139      10.00000000       0.32857697       0.16541589      -0.00005847
Pt       0.64722720       6.58994552      10.00000000      -1.42854117      -0.04201313       0.00894102
H        0.64722720       6.58994552      14.00000000      -0.00338305      -0.00127504      -0.53151097
H        0.64722720       6.58994552      14.74000000       0.00136168       0.00069482       0.51887838
33
Lattice="9.84 0.0 0.0 4.92 8.521689973238876 0.0 0.0 0.0 20.0" Properties=species:S:1:pos:R:3:forces:R:3 energy=-263.0895816090913 pbc="T T F"
C       -4.90407279       2.72825394      10.00000000       0.02414693      -0.02944787      -0.00572031
C       -4.95509823       4.14406101      10.00000000      -0.01059999       0.00836612       0.00311220
C       -3.70324291       4.80768718      10.00000000       0.01958217      -0.02461875      -0.00650804
C       -3.66224620       6.22199923      10.00000000      -0.05053504       0.04842040       0.02586790
C       -2.38584244       6.87990464      10.00000000       0.07109427      -0.07799040      -0.06798746
C       -2.34260280       8.31639578      10.00000000      -0.04266019       0.02373257       0.03314952
C       -1.12011677       9.07272175      10.00000000       0.12380690      -0.02999178      -0.03924471
C       -1.18885840      10.50678026      10.00000000      -0.03545964       0.02577363       0.01865978
C       -2.43055663       2.68615078      10.00000000      -0.01386350       0.01426454      -0.00318293
C       -2.47816054       4.08081684      10.00000000      -0.02552790       0.00425990       0.00058489
C       -1.24980115       4.73157830      10.00000000       0.05527865       0.01564237      -0.00041712
N       -1.23757445       6.11658101      10.00000000      -0.54964273      -0.10582661      -0.34230268
N        0.11440283       8.45981585      10.00000000      -0.12420130       0.31751076      -0.17146132
C        1.30792642       9.16224746      10.00000000      -0.00599989      -0.02966808       0.02334137
C        1.25803020      10.55216557      10.00000000      -0.03800605      -0.00272450       0.00081742
C        0.03720704       2.62807678      10.00000000       0.03419408      -0.00682002       0.00085465
C       -0.01311689       4.01783507      10.00000000      -0.02288479       0.02637876       0.02336680
N        1.17960686       4.71982639      10.00000000       0.17791557      -0.28938418      -0.17146594
N        2.53175081       7.06378150      10.00000000       0.57646074       0.08827773      -0.34228177
C        2.54438514       8.44872938      10.00000000      -0.04308790      -0.02381650      -0.00050432
C        3.77341498       9.09884503      10.00000000       0.01384568       0.00706367       0.00062291
C        3.72607066      10.49363473      10.00000000       0.00874187      -0.01765733      -0.00315608
C        2.48403183       2.67372211      10.00000000       0.04638842      -0.02727493       0.01864922
C        2.41500233       4.10756281      10.00000000      -0.13684688       0.04044005      -0.03920080
C        3.63739856       4.86418701      10.00000000       0.04466425      -0.03459213       0.03314132
C        3.68067784       6.30038185      10.00000000      -0.09349954       0.09191206      -0.06797630
C        4.95710118       6.95791183      10.00000000       0.05683788      -0.03895220       0.02587892
C        4.99842492       8.37232189      10.00000000      -0.01651945       0.02389677      -0.00651419
C        6.25024099       9.03652569      10.00000000       0.00246274      -0.01424658       0.00309716
C        6.19948042      10.45238139      10.00000000      -0.03771353       0.01761928      -0.00571737
Pt       0.64722720       6.58994552      10.00000000      -0.00256921      -0.00040984       0.04351895
H       -0.05277280       6.58994552      12.20000000       3.92608703       0.02635673       0.50201739
H        1.34722720       6.58994552      12.20000000      -3.92606699      -0.02654953       0.50184673
31
Lattice="9.84 0.0 0.0 4.92 8.521689973238876 0.0 0.0 0.0 20.0" Properties=species:S:1:pos:R:3:forces:R:3 energy=-263.1936968138834 pbc="T T F"
C       -4.87426994       2.71995808      10.03886131      -2.40130050      -0.27536559      -1.71916413
C       -4.86371644       4.13001181       9.98595178      -2.39463612       2.58591645      -0.82924101
C       -3.60849014       4.85373326       9.97183154      -3.32815860      -5.43453412       0.11245933
C       -3.62969260       6.19419417       9.97205621      -1.57714829       0.90846567      -0.33215342
C       -2.37132470       6.76510783       9.89650493      -8.12335086      10.47623177       0.67659156
C       -2.37634005       8.25562591      10.01885484      -0.56459610      -0.21499214      -0.12485269
C       -1.17459821       8.98798353      10.08793893       0.86528289       2.39947078      -2.22261563
C       -1.20240498      10.51083195       9.91451511       0.16465370      -0.90520820       2.30043074
C       -2.46321959       2.69280614       9.93094039       0.67697314      -0.49798003       0.75986286
C       -2.45561866       4.04477852       9.98249838       0.23092897       4.49814223      -0.00354431
C       -1.28590355       4.84271499       9.99919017       2.14487340      -8.76678320      -0.03375931
C       -1.30103711       6.16593370       9.92674938       9.70708596      -3.23631915       0.16301871
C        0.12693465       8.34223564       9.92030884      -1.30480671       6.66692086       1.62308829
C        1.31973809       9.20655545      10.01028210      -1.68379233      -3.60086058      -0.48565179
C        1.25109130      10.53409935       9.91128868      -0.12507403       1.92165565       0.88887015
C       -0.00598361       2.60043845      10.06342733       1.75215742      -3.26700868       0.01059998
C        0.00750021       3.91205266      10.01944504      -2.41914801       7.19826872       0.20737089
C        1.15650192       4.67921107      10.03670058      -1.09766868       2.01907535       0.21841087
C        2.59361078       7.11965831       9.94964695      -2.86597846      -2.19089658       0.63646907
C        2.52583240       8.46860519      10.05853271       1.59535073       1.19689352      -1.16892652
C        3.74466453       9.08770549       9.93361990       1.32839902       3.78702406       1.72951212
C        3.65429826      10.54238628      10.08137440       1.83422184      -4.20533887      -1.61254767
C        2.47971122       2.73393408      10.02169816       0.41767547      -3.62519843      -0.16903184
C        2.37629514       4.12924655      10.09228219       4.55240837       0.95317931      -1.83322342
C        3.63524900       4.95806563       9.84281529       0.87437171      -7.08527049       2.69708804
C        3.72999199       6.30560467       9.98205956      -1.64959986       0.64056714      -0.83356019
C        4.96260683       6.83865770       9.98681969       3.48229802       7.06977741      -0.06071827
C        5.01985167       8.46099553       9.96890379      -5.40861794      -7.66286402      -0.07639452
C        6.20173137       9.00642027      10.05492413       5.34866307       2.43424817      -0.38100410
C        6.21920549      10.42059578      10.03079605      -0.96096190       2.07977821       0.58563812
Pt       0.65305185       6.64806422       9.95787681       0.92907511      -5.86368051      -0.73111675
33
Lattice="9.84 0.0 0.0 4.92 8.521689973238876 0.0 0.0 0.0 20.0" Properties=species:S:1:pos:R:3:forces:R:3 energy=-270.1078219105758 pbc="T T F"
C       -4.90407279       2.72825394      10.00000000      -0.18824864      -0.17979433      -0.00038228
C       -4.95509823       4.14406101      10.00000000      -0.11753500       0.16370785      -0.01072836
C       -3.70324291       4.80768718      10.00000000       0.03651043       0.33492758      -0.01087325
C       -3.66224620       6.22199923      10.00000000       0.12209078      -0.09579244       0.03853861
C       -2.38584244       6.87990464      10.00000000      -0.39043117       0.22197138       0.05787157
C       -2.34260280       8.31639578      10.00000000      -0.36995350       0.11564547      -0.00834261
C       -1.12011677       9.07272175      10.00000000      -1.19246397       0.75483737       0.07472215
C       -1.18885840      10.50678026      10.00000000      -0.33904202      -0.07405698      -0.02275861
C       -2.43055663       2.68615078      10.00000000      -0.13932256       0.14005692       0.01238887
C       -2.47816054       4.08081684      10.00000000      -0.21984713       0.05661795       0.10378437
C       -1.24980115       4.73157830      10.00000000      -1.15214498       1.13537936       0.01705303
N       -1.23757445       6.11658101      10.00000000      -0.84160537      -1.69194665      -1.15586201
C        0.11440283       8.45981585      10.00000000       0.68837575       0.14429130      -0.84037712
C        1.30792642       9.16224746      10.00000000      -0.55984100       0.26707591       0.02835236
C        1.25803020      10.55216557      10.00000000       0.27810549       0.41123869       0.04707914
C        0.03720704       2.62807678      10.00000000      -0.28105918      -0.42166839       0.04718217
C       -0.01311689       4.01783507      10.00000000       0.52730961      -0.27089728       0.02842189
C        1.17960686       4.71982639      10.00000000      -0.62931188      -0.12057211      -0.84018876
N        2.53175081       7.06378150      10.00000000       0.86760422       1.67445540      -1.15623318
C        2.54438514       8.44872938      10.00000000       1.16493303      -1.14405255       0.01724958
C        3.77341498       9.09884503      10.00000000       0.20773651      -0.04483835       0.10370211
C        3.72607066      10.49363473      10.00000000       0.13513424      -0.14364137       0.01240046
C        2.48403183       2.67372211      10.00000000       0.35073416       0.07254401      -0.02282579
C        2.41500233       4.10756281      10.00000000       1.17671849      -0.74157368       0.07466185
C        3.63739856       4.86418701      10.00000000       0.37252432      -0.12664778      -0.00828244
C        3.68067784       6.30038185      10.00000000       0.36837060      -0.20878828       0.05784003
C        4.95710118       6.95791183      10.00000000      -0.11579992       0.10508105       0.03846692
C        4.99842492       8.37232189      10.00000000      -0.03312189      -0.33544572      -0.01088566
C        6.25024099       9.03652569      10.00000000       0.10873589      -0.16908589      -0.01067809
C        6.19948042      10.45238139      10.00000000       0.17450302       0.16732047      -0.00038227
Pt       0.64722720       6.58994552      10.00000000      -0.00277577       0.00003550       1.68040929
H        0.22222720       6.58994552      11.80000000       0.59194934       0.15458269       0.81147688
H        1.07222720       6.58994552      11.80000000      -0.59189066      -0.15495076       0.81141182
32
Lattice="9.84 0.0 0.0 4.92 8.521689973238876 0.0 0.0 0.0 20.0" Properties=species:S:1:pos:R:3:forces:R:3 energy=-252.52951369620055 pbc="T T F"
C       -4.90407279       2.72825394      10.00000000      -0.27483921      -0.19811801      -0.00504783
C       -4.95509823       4.14406101      10.00000000       0.41819740      -0.08740271      -0.03473956
C       -3.70324291       4.80768718      10.00000000      -0.05230487       0.27397014       0.00288320
C       -3.66224620       6.22199923      10.00000000       0.47190384       0.02921453      -0.00219366
C       -2.38584244       6.87990464      10.00000000      -0.14943509       0.27305302      -0.05029927
C       -2.34260280       8.31639578      10.00000000       0.06819501       0.08055359       0.02860517
C       -1.12011677       9.07272175      10.00000000       0.03831865      -0.12985553      -0.03527699
C       -1.18885840      10.50678026      10.00000000      -0.07166682      -0.06154844      -0.00091809
C       -2.43055663       2.68615078      10.00000000       0.13409201      -0.21709360       0.00008898
C       -2.47816054       4.08081684      10.00000000      -0.07323264       0.14607995       0.01530731
C       -1.24980115       4.73157830      10.00000000      -0.12958506       0.44085031      -0.04395378
N       -1.23757445       6.11658101      10.00000000      -0.24011748      -1.11886336      -0.46282935
N        0.11440283       8.45981585      10.00000000      -0.44826315       0.71518283      -0.20641189
C        1.30792642       9.16224746      10.00000000       0.26577555      -1.11722006       0.03551530
C        1.25803020      10.55216557      10.00000000       0.01972838       0.58672840       0.04390032
C        0.03720704       2.62807678      10.00000000      -0.05700010      -0.17378399       0.01950352
C       -0.01311689       4.01783507      10.00000000       0.65115037      -0.04135723       0.02540954
N        1.17960686       4.71982639      10.00000000       0.04356292      -0.35044620      -0.33829446
C        2.54438514       8.44872938      10.00000000      -1.87241507      -0.87716941      -0.15436409
C        3.77341498       9.09884503      10.00000000      -0.93570316      -1.67355576       0.00874100
C        3.72607066      10.49363473      10.00000000      -0.08655248       0.22722918       0.00102156
C        2.48403183       2.67372211      10.00000000      -0.07745451      -0.00682444       0.03866245
C        2.41500233       4.10756281      10.00000000      -0.13661783      -0.52420249       0.04212754
C        3.63739856       4.86418701      10.00000000      -0.49038360       1.52330096      -0.06871182
C        3.68067784       6.30038185      10.00000000       1.43035515      -0.63002565       0.12764692
C        4.95710118       6.95791183      10.00000000      -1.59669575      -0.40698020      -0.02334810
C        4.99842492       8.37232189      10.00000000       0.79748464       0.24017079      -0.00559374
C        6.25024099       9.03652569      10.00000000      -0.29830957      -0.30750438      -0.00523477
C        6.19948042      10.45238139      10.00000000       0.15283436       0.13884412      -0.00972097
Pt       0.64722720       6.58994552      10.00000000       2.18039950       3.12235716       0.83856176
H       -0.05277280       6.58994552      12.20000000       3.79000246       0.03443876       0.16206811
H        1.34722720       6.58994552      12.20000000      -3.46498483       0.09033234       0.04581231
33
Lattice="9.84 0.0 0.0 4.92 8.521689973238876 0.0 0.0 0.0 20.0" Properties=species:S:1:pos:R:3:forces:R:3 energy=-273.77684493804765 pbc="T T F"
C       -4.90407279       2.72825394      10.00000000      -0.37055507      -0.20523596       0.00003054
C       -4.95509823       4.14406101      10.00000000       0.04507743       0.14156309      -0.00002291
C       -3.70324291       4.80768718      10.00000000       0.00400731       0.30433849       0.00013551
C       -3.66224620       6.22199923      10.00000000      -0.07112380       0.20710274       0.00012955
C       -2.38584244       6.87990464      10.00000000      -1.27584593       0.90869877       0.00052240
C       -2.34260280       8.31639578      10.00000000      -0.51843589       0.32398401      -0.00010446
C       -1.12011677       9.07272175      10.00000000      -1.37372943       0.87056338       0.00023816
C       -1.18885840      10.50678026      10.00000000      -0.35171249      -0.12202064       0.00007666
C       -2.43055663       2.68615078      10.00000000      -0.23258000       0.14667609       0.00005597
C       -2.47816054       4.08081684      10.00000000      -0.25432094      -0.29207383       0.00043061
C       -1.24980115       4.73157830      10.00000000      -0.89899560      -0.23794283       0.00057688
C       -1.23757445       6.11658101      10.00000000       1.57462719      -0.16334374      -0.00182126
C        0.11440283       8.45981585      10.00000000       0.47198519      -0.72237158      -0.00085080
C        1.30792642       9.16224746      10.00000000      -0.43051629       0.47891712       0.00008636
C        1.25803020      10.55216557      10.00000000       0.33313930       0.33776452       0.00003487
C        0.03720704       2.62807678      10.00000000      -0.18957928      -0.35550097       0.00033069
C       -0.01311689       4.01783507      10.00000000       0.22357041      -0.97123417       0.00016219
C        1.17960686       4.71982639      10.00000000      -0.57193040       0.57567967      -0.00152443
N        2.53175081       7.06378150      10.00000000       1.19092183       1.05866284       0.00004483
C        2.54438514       8.44872938      10.00000000       1.28867951      -1.11718871       0.00006273
C        3.77341498       9.09884503      10.00000000       0.23937257       0.01746712       0.00026935
C        3.72607066      10.49363473      10.00000000      -0.03565977      -0.06252550       0.00010007
C        2.48403183       2.67372211      10.00000000       0.45974516       0.13732784       0.00008288
C        2.41500233       4.10756281      10.00000000       1.39554399      -0.83547517       0.00021878
C        3.63739856       4.86418701      10.00000000       0.08549135      -0.43996102       0.00010246
C        3.68067784       6.30038185      10.00000000       0.37613544       0.42825267      -0.00034354
C        4.95710118       6.95791183      10.00000000      -0.03895017      -0.08134496       0.00005159
C        4.99842492       8.37232189      10.00000000      -0.04598105      -0.52413925       0.00014778
C        6.25024099       9.03652569      10.00000000       0.07900133       0.07047822      -0.00003784
C        6.19948042      10.45238139      10.00000000       0.32877940       0.16514737       0.00003418
Pt       0.64722720       6.58994552      10.00000000      -1.42715377      -0.04116926       0.00031678
H        0.27722720       6.58994552      14.00000000      -0.50095050       0.00213321      -0.00092722
H        1.01722720       6.58994552      14.00000000       0.50003810      -0.00255812       0.00569126
33
Lattice="9.84 0.0 0.0 4.92 8.521689973238876 0.0 0.0 0.0 20.0" Properties=species:S:1:pos:R:3:forces:R:3 energy=-265.925702120568 pbc="T T F"
C       -4.90407279       2.72825394      10.00000000       0.07651018      -0.02544544       0.01743541
C       -4.95509823       4.14406101      10.00000000      -0.06759533      -0.07726926       0.06430282
C       -3.70324291       4.80768718      10.00000000      -0.06046308       0.11087571      -0.00064606
C       -3.66224620       6.22199923      10.00000000       0.14809424       0.16310280       0.07420641
C       -2.38584244       6.87990464      10.00000000      -0.41165458      -0.07950902       0.00732031
C       -2.34260280       8.31639578      10.00000000       0.06462718       0.11654010      -0.01279709
C       -1.12011677       9.07272175      10.00000000      -0.33471374       0.04500353       0.02693521
C       -1.18885840      10.50678026      10.00000000      -0.07801594      -0.10014217       0.02450713
C       -2.43055663       2.68615078      10.00000000       0.14872370      -0.17528159      -0.02000305
C       -2.47816054       4.08081684      10.00000000       0.05668246       0.04646576      -0.03658937
C       -1.24980115       4.73157830      10.00000000      -0.17428433       0.18297151       0.04272238
N       -1.23757445       6.11658101      10.00000000      -1.20260133      -0.41069703      -0.38084878
N        0.11440283       8.45981585      10.00000000       0.09233643       0.66012202      -0.64525554
C        1.30792642       9.16224746      10.00000000       0.47185713       0.27232053       0.03846051
C        1.25803020      10.55216557      10.00000000      -0.25462038       0.08452866       0.13037404
C        0.03720704       2.62807678      10.00000000      -0.05684688       0.08943125       0.03474050
C       -0.01311689       4.01783507      10.00000000       0.14375098      -0.03663652       0.07356336
N        1.17960686       4.71982639      10.00000000      -0.32001082      -0.26434575      -0.63624772
C        2.53175081       7.06378150      10.00000000      -1.37283941      -0.25667833       1.17080828
C        2.54438514       8.44872938      10.00000000      -0.38647343       3.55255023      -1.24881647
C        3.77341498       9.09884503      10.00000000      -0.34717104       0.31107610      -0.07582360
C        3.72607066      10.49363473      10.00000000      -0.00636572       0.12578707       0.02911138
C        2.48403183       2.67372211      10.00000000      -0.06979818       0.00109092       0.02488352
C        2.41500233       4.10756281      10.00000000       0.42265280      -0.24194884       0.04886208
C        3.63739856       4.86418701      10.00000000       0.51074524       0.29858552      -0.00857543
C        3.68067784       6.30038185      10.00000000       3.52281903      -2.84529846      -1.43422151
C        4.95710118       6.95791183      10.00000000      -0.08506966      -0.55286168      -0.06855766
C        4.99842492       8.37232189      10.00000000       0.18412337       0.06082202       0.03462171
C        6.25024099       9.03652569      10.00000000      -0.01479614      -0.07847824      -0.00417126
C        6.19948042      10.45238139      10.00000000       0.21064334      -0.02096775      -0.00895322
Pt       0.64722720       6.58994552      10.00000000      -0.47129286      -0.58036115      -0.20726155
H        0.64722720       6.58994552      11.55000000      -0.01905341       0.01981488       1.08390785
H        2.53175081       7.06378150      11.10000000      -0.31366298      -0.39400418       1.83928211
33
Lattice="9.84 0.0 0.0 4.92 8.521689973238876 0.0 0.0 0.0 20.0" Properties=species:S:1:pos:R:3:forces:R:3 energy=-273.20496616266786 pbc="T T F"
C       -4.90407279       2.72825394      10.00000000      -0.36968594      -0.19925937      -0.00030700
C       -4.95509823       4.14406101      10.00000000       0.05455708       0.14038341      -0.00145351
C       -3.70324291       4.80768718      10.00000000      -0.00311323       0.29947773      -0.00236086
C       -3.66224620       6.22199923      10.00000000      -0.07643235       0.19899914       0.00832577
C       -2.38584244       6.87990464      10.00000000      -1.29161946       0.93128701       0.02927934
C       -2.34260280       8.31639578      10.00000000      -0.51502014       0.31978827      -0.00878603
C       -1.12011677       9.07272175      10.00000000      -1.40046274       0.86792872       0.02988780
C       -1.18885840      10.50678026      10.00000000      -0.34704178      -0.11797253       0.00161862
C       -2.43055663       2.68615078      10.00000000      -0.21345306       0.13507763       0.00096524
C       -2.47816054       4.08081684      10.00000000      -0.23761418      -0.28373299       0.03617282
C       -1.24980115       4.73157830      10.00000000      -0.85754571      -0.33532297       0.02121405
C       -1.23757445       6.11658101      10.00000000       1.44408568      -0.18847775      -0.39274234
C        0.11440283       8.45981585      10.00000000       0.44248264      -0.65940663      -0.30753523
C        1.30792642       9.16224746      10.00000000      -0.34570073       0.48178950       0.01239677
C        1.25803020      10.55216557      10.00000000       0.33320998       0.32153918       0.00603720
C        0.03720704       2.62807678      10.00000000      -0.19022846      -0.32658489       0.02665884
C       -0.01311689       4.01783507      10.00000000       0.12848603      -0.98888242       0.02066976
C        1.17960686       4.71982639      10.00000000      -0.56695109       0.50174482      -0.32659730
N        2.53175081       7.06378150      10.00000000       1.31972795       1.11063786      -0.30975357
C        2.54438514       8.44872938      10.00000000       1.26565143      -1.04758013      -0.00414316
C        3.77341498       9.09884503      10.00000000       0.23002342       0.01565006       0.01841376
C        3.72607066      10.49363473      10.00000000      -0.04640398      -0.06196137       0.00297694
C        2.48403183       2.67372211      10.00000000       0.45415462       0.13360705      -0.00416359
C        2.41500233       4.10756281      10.00000000       1.41886520      -0.83866872       0.02139702
C        3.63739856       4.86418701      10.00000000       0.07944703      -0.43481286       0.00024477
C        3.68067784       6.30038185      10.00000000       0.38593296       0.41170969       0.00212902
C        4.95710118       6.95791183      10.00000000      -0.03761787      -0.07477719       0.00748919
C        4.99842492       8.37232189      10.00000000      -0.04518535      -0.51238981      -0.00206012
C        6.25024099       9.03652569      10.00000000       0.07866516       0.07378459      -0.00146018
C        6.19948042      10.45238139      10.00000000       0.32121285       0.15339739       0.00000977
Pt       0.64722720       6.58994552      10.00000000      -1.41835677      -0.02047022      -0.24411662
H        0.27722720       6.58994552      12.20000000      -0.77050149       0.02144396       0.64651700
H        1.01722720       6.58994552      12.20000000       0.78064332      -0.02995011       0.70493521
32
Lattice="9.84 0.0 0.0 4.92 8.521689973238876 0.0 0.0 0.0 20.0" Properties=species:S:1:pos:R:3:forces:R:3 energy=-254.647511967587 pbc="T T F"
C       -4.90407279       2.72825394      10.00000000      -0.28077818      -0.19576026      -0.00362381
C       -4.95509823       4.14406101      10.00000000       0.43360865      -0.07858572      -0.02772756
C       -3.70324291       4.80768718      10.00000000      -0.05794879       0.26893096       0.00268141
C       -3.66224620       6.22199923      10.00000000       0.48002515       0.03931343      -0.01012802
C       -2.38584244       6.87990464      10.00000000      -0.14737360       0.30559837      -0.03065077
C       -2.34260280       8.31639578      10.00000000       0.06020405       0.07645861       0.01706138
C       -1.12011677       9.07272175      10.00000000       0.01570459      -0.11379567      -0.02686924
C       -1.18885840      10.50678026      10.00000000      -0.07600869      -0.06680546       0.00049246
C       -2.43055663       2.68615078      10.00000000       0.13312758      -0.22107545      -0.00210444
C       -2.47816054       4.08081684      10.00000000      -0.07260974       0.15556228       0.00289446
C       -1.24980115       4.73157830      10.00000000      -0.09799352       0.38784173      -0.02140196
N       -1.23757445       6.11658101      10.00000000       0.12935764      -0.97407349      -0.16393868
N        0.11440283       8.45981585      10.00000000      -0.46289161       0.60291285      -0.13151795
C        1.30792642       9.16224746      10.00000000       0.30879406      -1.12050825       0.01936955
C        1.25803020      10.55216557      10.00000000       0.02710203       0.60032022       0.03431218
C        0.03720704       2.62807678      10.00000000      -0.06501818      -0.16111650       0.01330502
C       -0.01311689       4.01783507      10.00000000       0.63617467      -0.05871076       0.01102613
N        1.17960686       4.71982639      10.00000000       0.03414877      -0.25387187      -0.22209947
C        2.54438514       8.44872938      10.00000000      -1.83017017      -0.87840496      -0.08682875
C        3.77341498       9.09884503      10.00000000      -0.96766227      -1.65028271      -0.00162863
C        3.72607066      10.49363473      10.00000000      -0.07164056       0.22926863       0.00063153
C        2.48403183       2.67372211      10.00000000      -0.06962040       0.01052167       0.02604395
C        2.41500233       4.10756281      10.00000000      -0.11140169      -0.55219959       0.03331418
C        3.63739856       4.86418701      10.00000000      -0.51335044       1.51662724      -0.04571167
C        3.68067784       6.30038185      10.00000000       1.35750675      -0.62595975       0.11356994
C        4.95710118       6.95791183      10.00000000      -1.62435012      -0.39455329      -0.02475149
C        4.99842492       8.37232189      10.00000000       0.81355065       0.23714688      -0.00015970
C        6.25024099       9.03652569      10.00000000      -0.29977869      -0.31021762      -0.00348033
C        6.19948042      10.45238139      10.00000000       0.14955080       0.13184244      -0.00715815
Pt       0.64722720       6.58994552      10.00000000       2.01584994       3.04064015      -0.79243575
H        0.27722720       6.58994552      12.20000000      -0.68282569       0.02397708       0.65995043
H        1.01722720       6.58994552      12.20000000       0.84056661       0.03415799       0.66407736
33
Lattice="9.84 0.0 0.0 4.92 8.521689973238876 0.0 0.0 0.0 20.0" Properties=species:S:1:pos:R:3:forces:R:3 energy=-268.87582874445053 pbc="T T F"
C       -4.90407279       2.72825394      10.00000000      -0.17591347      -0.18144331       0.00125997
C       -4.95509823       4.14406101      10.00000000      -0.08562318       0.17615582      -0.01277092
C       -3.70324291       4.80768718      10.00000000       0.01090504       0.30740563      -0.00661104
C       -3.66224620       6.22199923      10.00000000       0.14177190      -0.13115819       0.04750422
C       -2.38584244       6.87990464      10.00000000      -0.46112100       0.40816364       0.03843732
C       -2.34260280       8.31639578      10.00000000      -0.39416788       0.03815984      -0.02167036
C       -1.12011677       9.07272175      10.00000000      -1.18437538       0.70516262       0.08428053
C       -1.18885840      10.50678026      10.00000000      -0.32893271      -0.05708927      -0.02908898
C       -2.43055663       2.68615078      10.00000000      -0.10874615       0.11761417       0.01743859
C       -2.47816054       4.08081684      10.00000000      -0.17600107       0.10502724       0.12203925
C       -1.24980115       4.73157830      10.00000000      -1.05818390       0.89345304      -0.06647413
N       -1.23757445       6.11658101      10.00000000      -1.01565613      -1.78562124      -1.39901819
C        0.11440283       8.45981585      10.00000000       0.59675089       0.15993518      -0.80591128
C        1.30792642       9.16224746      10.00000000      -0.34500741       0.20412437       0.00394972
C        1.25803020      10.55216557      10.00000000       0.26411181       0.40026099       0.04563913
C        0.03720704       2.62807678      10.00000000      -0.26700569      -0.41048437       0.04574025
C       -0.01311689       4.01783507      10.00000000       0.31240286      -0.20819367       0.00402665
C        1.17960686       4.71982639      10.00000000      -0.53770003      -0.13610135      -0.80576570
N        2.53175081       7.06378150      10.00000000       1.04178618       1.76814556      -1.39930085
C        2.54438514       8.44872938      10.00000000       1.07091240      -0.90212371      -0.06622486
C        3.77341498       9.09884503      10.00000000       0.16389260      -0.09324442       0.12195994
C        3.72607066      10.49363473      10.00000000       0.10446886      -0.12122785       0.01746119
C        2.48403183       2.67372211      10.00000000       0.34062150       0.05559377      -0.02916708
C        2.41500233       4.10756281      10.00000000       1.16864968      -0.69197533       0.08425275
C        3.63739856       4.86418701      10.00000000       0.39678040      -0.04921487      -0.02159610
C        3.68067784       6.30038185      10.00000000       0.43896062      -0.39485055       0.03841857
C        4.95710118       6.95791183      10.00000000      -0.13543046       0.14049495       0.04742370
C        4.99842492       8.37232189      10.00000000      -0.00751317      -0.30792069      -0.00662633
C        6.25024099       9.03652569      10.00000000       0.07679753      -0.18151495      -0.01273698
C        6.19948042      10.45238139      10.00000000       0.16212953       0.16892196       0.00126737
Pt       0.64722720       6.58994552      10.00000000      -0.00273646      -0.00010033       5.18361123
H       -0.05277280       6.58994552      11.80000000       2.44284544       0.29208592      -0.62648150
H        1.34722720       6.58994552      11.80000000      -2.44255419      -0.29245086      -0.62653450
32
Lattice="9.84 0.0 0.0 4.92 8.521689973238876 0.0 0.0 0.0 20.0" Properties=species:S:1:pos:R:3:forces:R:3 energy=-264.5379565883266 pbc="T T F"
C       -4.90407279       2.72825394      10.00000000      -0.65875445      -0.41161879       0.00028804
C       -4.95509823       4.14406101      10.00000000       0.88825771       0.31873935       0.00196973
C       -3.70324291       4.80768718      10.00000000      -0.18313437       0.47759090      -0.00083334
C       -3.66224620       6.22199923      10.00000000       0.30470044      -0.14624098       0.00396327
C       -2.38584244       6.87990464      10.00000000      -1.32260975       1.28154163       0.00662474
C       -2.34260280       8.31639578      10.00000000      -0.39580187       0.28041383      -0.00523974
C       -1.12011677       9.07272175      10.00000000      -1.50543584       0.84264061       0.00270184
C       -1.18885840      10.50678026      10.00000000      -0.47192971      -0.13553325       0.00060825
C       -2.43055663       2.68615078      10.00000000      -0.09653648      -0.13259499       0.00126756
C       -2.47816054       4.08081684      10.00000000      -0.05083040       0.11369403       0.01230653
C       -1.24980115       4.73157830      10.00000000      -0.55253240      -0.51715226       0.00077995
C       -1.23757445       6.11658101      10.00000000       2.53077728      -0.27309776      -0.11807067
C        0.11440283       8.45981585      10.00000000      -0.50800980      -1.37738643      -0.08428797
C        1.30792642       9.16224746      10.00000000       0.66390563      -0.87794649      -0.00105185
C        1.25803020      10.55216557      10.00000000       0.69560669       1.09721770      -0.00293037
C        0.03720704       2.62807678      10.00000000      -0.09553777      -0.56711008       0.01362222
C       -0.01311689       4.01783507      10.00000000       0.14202152      -0.67659795      -0.00070877
C        1.17960686       4.71982639      10.00000000       0.41259593       0.19479045      -0.11668681
C        2.54438514       8.44872938      10.00000000      -0.26846698      -0.97299380      -0.00081259
C        3.77341498       9.09884503      10.00000000      -0.65260062      -1.71437733      -0.00024035
C        3.72607066      10.49363473      10.00000000      -0.37534349       0.38755808       0.00169553
C        2.48403183       2.67372211      10.00000000       0.30814107       0.04032575       0.00447721
C        2.41500233       4.10756281      10.00000000       0.41290892      -1.05374672       0.00244039
C        3.63739856       4.86418701      10.00000000      -0.83831075       1.65851021      -0.00632551
C        3.68067784       6.30038185      10.00000000       1.58727754      -0.52898558       0.00020311
C        4.95710118       6.95791183      10.00000000      -1.94832396      -0.27300374      -0.00091338
C        4.99842492       8.37232189      10.00000000       0.75989554      -0.19414171      -0.00246444
C        6.25024099       9.03652569      10.00000000      -0.32543859      -0.07276426      -0.00031329
C        6.19948042      10.45238139      10.00000000       0.47476477       0.29271345      -0.00030645
Pt       0.64722720       6.58994552      10.00000000       1.01648060       2.92374536      -0.23049521
H        0.27722720       6.58994552      12.60000000      -0.52090784       0.01971701       0.24302906
H        1.01722720       6.58994552      12.60000000       0.57950097      -0.00197273       0.26979076
30
Lattice="9.84 0.0 0.0 4.92 8.521689973238876 0.0 0.0 0.0 20.0" Properties=species:S:1:pos:R:3:forces:R:3 energy=-253.4583916928181 pbc="T T F"
C       -4.88917137       2.72410601      10.01943066      -1.65797101      -0.23902605      -0.78322063
C       -4.90940733       4.13703641       9.99297589      -0.96993221       1.38937976       0.42633704
C       -3.65586653       4.83071022       9.98591577      -2.10180141      -1.90308630       0.03681669
C       -3.64596940       6.20809670       9.98602811       0.00514106       0.40498704      -0.23005640
C       -2.37858357       6.82250623       9.94825247      -4.02345117       5.66139493       0.45742931
C       -2.35947143       8.28601085      10.00942742      -0.17541825       0.77834581      -0.29325955
C       -1.14735749       9.03035264      10.04396946       1.51000428       1.38859374      -1.06771782
C       -1.19563169      10.50880611       9.95725755      -0.94896578      -0.65699223       1.34014219
C       -2.44688811       2.68947846       9.96547019       0.99931126      -1.13287469      -0.04687657
C       -2.46688960       4.06279768       9.99124919       0.32572116       2.20576870      -0.12989590
C       -1.26785235       4.78714665       9.99959508       1.22606019      -4.79823314      -0.09886859
C       -1.26930578       6.14125736       9.96337469       6.06343829      -2.30170916       0.24712111
N        0.12066874       8.40102575       9.96015442      -0.72249640       3.65398735       0.75507465
C        1.31383226       9.18440146      10.00514105      -1.15557028      -4.08559607      -0.63559494
C        1.25456075      10.54313246       9.95564434       0.34195519       1.59882289       0.54513480
C        0.01561171       2.61425762      10.03171367       0.02703230      -1.65704531      -0.37437389
C       -0.00280834       3.96494387      10.00972252      -1.62273414       3.29809742       0.11930387
C        1.16805439       4.69951873      10.01835029      -0.37771668       1.30915498       0.01669070
C        2.57531513       8.47666778       9.97482347      -2.54528771      -2.00271235       0.30285789
C        3.76413861       9.10878293      10.02926635       1.46265154      -2.75325255      -0.63477696
C        3.71169543      10.48806496       9.96680995      -0.39475280       0.83676069       0.51617481
C        2.44814563       2.69809788      10.04068720       1.88051569      -1.08942703      -0.65752972
C        2.41284203       4.13766880      10.01084908       0.26149537      -2.12237694       0.45895375
C        3.61804497       4.87502888      10.04614110       1.62068140       2.52823397      -1.03878058
C        3.67960306       6.34732116       9.92140765       1.30466892      -2.18344526       0.92278830
C        4.98175826       6.96052324       9.99102978      -2.44246895      -2.13546546      -0.36127711
C        5.00117774       8.31269482       9.99340984       1.38784369       5.37907877       0.17537884
C        6.26095437       9.08086251       9.98445189      -1.26110578      -4.90926419       0.34528198
C        6.17522561      10.43732868      10.02746206       0.87550127       2.65697790       0.08685263
Pt       0.65708973       6.57405271      10.01539802       1.10854428       0.89499280      -0.28221280
33
Lattice="9.84 0.0 0.0 4.92 8.521689973238876 0.0 0.0 0.0 20.0" Properties=species:S:1:pos:R:3:forces:R:3 energy=-266.54353884571174 pbc="T T F"
C       -4.90407279       2.72825394      10.00000000      -0.34530366      -0.30799381      -0.00081919
C       -4.95509823       4.14406101      10.00000000       0.01841902       0.35547718      -0.00058965
C       -3.70324291       4.80768718      10.00000000      -0.04242163       0.20943151       0.00917432
C       -3.66224620       6.22199923      10.00000000      -0.14710879       0.12594777      -0.05530356
C       -2.38584244       6.87990464      10.00000000      -1.20966100       1.12737435       0.04080067
C       -2.34260280       8.31639578      10.00000000      -0.43909859      -0.05507006      -0.03970911
C       -1.12011677       9.07272175      10.00000000      -0.03605717       0.44422946       0.04365946
C       -1.18885840      10.50678026      10.00000000      -0.01602629       0.00104347       0.00478982
C       -2.43055663       2.68615078      10.00000000      -0.20344850       0.02714270       0.00907886
C       -2.47816054       4.08081684      10.00000000      -0.13284090      -0.18803223       0.03396506
C       -1.24980115       4.73157830      10.00000000      -0.81477318      -0.18236130      -0.00709580
C       -1.23757445       6.11658101      10.00000000       0.85615584      -0.83161263      -0.40406363
N        0.11440283       8.45981585      10.00000000       0.37517518       1.63552814      -0.51146029
C        1.30792642       9.16224746      10.00000000      -1.86575108       0.04725904      -0.02259452
C        1.25803020      10.55216557      10.00000000       0.07689674       0.24004543       0.02291411
C        0.03720704       2.62807678      10.00000000      -0.09663617      -0.27907718       0.10867767
C       -0.01311689       4.01783507      10.00000000       0.35964351      -0.72774287       0.03146796
C        1.17960686       4.71982639      10.00000000      -1.14006707       0.60214426      -0.55011711
N        2.53175081       7.06378150      10.00000000       1.44684479       1.34722362      -0.54973468
C        2.54438514       8.44872938      10.00000000       0.96797032      -1.56737450      -0.11620137
C        3.77341498       9.09884503      10.00000000       0.13323019       0.18065841       0.02365549
C        3.72607066      10.49363473      10.00000000       0.12936027      -0.16729283       0.00786289
C        2.48403183       2.67372211      10.00000000       0.18900795      -0.08499876      -0.02801425
C        2.41500233       4.10756281      10.00000000       1.27002713      -0.38713189       0.03995346
C        3.63739856       4.86418701      10.00000000       0.23712950      -0.29104543      -0.04906816
C        3.68067784       6.30038185      10.00000000       0.54389482       0.00254406      -0.06021092
C        4.95710118       6.95791183      10.00000000      -0.04259871      -0.00338063      -0.00087619
C        4.99842492       8.37232189      10.00000000      -0.04588625      -0.43077643       0.01268138
C        6.25024099       9.03652569      10.00000000       0.27037539       0.15677430      -0.00287748
C        6.19948042      10.45238139      10.00000000       0.19341474       0.09781609       0.00046166
Pt       0.64722720       6.58994552      10.00000000      -0.42278500      -0.94625344       3.34717299
H       -0.50277280       6.58994552      12.20000000       1.08786711      -0.03546479      -0.90628328
H        1.79722720       6.58994552      12.20000000      -1.14901146      -0.11200738      -0.47896123
33
Lattice="9.84 0.0 0.0 4.92 8.521689973238876 0.0 0.0 0.0 20.0" Properties=species:S:1:pos:R:3:forces:R:3 energy=-267.2378611254919 pbc="T T F"
C       -4.90407279       2.72825394      10.00000000      -0.05262136      -0.12602249      -0.00700903
C       -4.95509823       4.14406101      10.00000000      -0.25535168      -0.07337688      -0.00361554
C       -3.70324291       4.80768718      10.00000000       0.13603824       0.07745296      -0.00458691
C       -3.66224620       6.22199923      10.00000000      -0.02933606       0.29295416       0.01538553
C       -2.38584244       6.87990464      10.00000000      -0.18052818      -0.37424295      -0.02343413
C       -2.34260280       8.31639578      10.00000000       0.00565453       0.03718923       0.01342786
C       -1.12011677       9.07272175      10.00000000       0.06245977       0.06625227      -0.00900189
C       -1.18885840      10.50678026      10.00000000       0.05044246       0.03793134       0.02261159
C       -2.43055663       2.68615078      10.00000000       0.00571415       0.03055785       0.00400958
C       -2.47816054       4.08081684      10.00000000      -0.24277974      -0.10976221       0.02736113
C       -1.24980115       4.73157830      10.00000000      -0.30039939       0.60452196       0.01069673
N       -1.23757445       6.11658101      10.00000000      -1.85781531      -0.56247161      -0.71707833
N        0.11440283       8.45981585      10.00000000       0.40245139       1.24198276      -0.66350337
C        1.30792642       9.16224746      10.00000000      -0.70577366       0.54916757       0.03632682
C        1.25803020      10.55216557      10.00000000      -0.23538109       0.03428889       0.06499643
C        0.03720704       2.62807678      10.00000000       0.01450265      -0.05723818       0.03667548
C       -0.01311689       4.01783507      10.00000000       0.61114854       0.01209600       0.03023555
N        1.17960686       4.71982639      10.00000000      -0.24774390      -0.56591682      -0.69715906
C        2.53175081       7.06378150      10.00000000      -0.67777123       0.23450340      -0.79225976
C        2.54438514       8.44872938      10.00000000      -0.02324619       0.22619120       0.03749195
C        3.77341498       9.09884503      10.00000000       0.08969578       0.38213490       0.03912876
C        3.72607066      10.49363473      10.00000000       0.18197468      -0.04016399       0.00471395
C        2.48403183       2.67372211      10.00000000      -0.03375959       0.09621841       0.03206918
C        2.41500233       4.10756281      10.00000000       0.48355371      -0.16399393       0.01872559
C        3.63739856       4.86418701      10.00000000       0.30327288      -0.52420468       0.00295926
C        3.68067784       6.30038185      10.00000000       0.74724790      -0.67456853       0.04411946
C        4.95710118       6.95791183      10.00000000       0.23819554      -0.14328165       0.00765518
C        4.99842492       8.37232189      10.00000000       0.01986218      -0.16536285      -0.00219851
C        6.25024099       9.03652569      10.00000000       0.02360386      -0.05614385      -0.00254337
C        6.19948042      10.45238139      10.00000000       0.08330469       0.06792755      -0.00752951
Pt       0.64722720       6.58994552      10.00000000       1.39213031      -0.39046593      -0.10012693
H        0.22222720       6.58994552      11.80000000       0.77489194       0.04247293       1.37381177
H        1.07222720       6.58994552      11.80000000      -0.77846549      -0.00801046       1.20245704
32
Lattice="9.84 0.0 0.0 4.92 8.521689973238876 0.0 0.0 0.0 20.0" Properties=species:S:1:pos:R:3:forces:R:3 energy=-257.0223295251437 pbc="T T F"
C       -4.90407279       2.72825394      10.00000000      -0.48079673      -0.40181584      -0.00185893
C       -4.95509823       4.14406101      10.00000000       0.69396203       0.26637471       0.08103120
C       -3.70324291       4.80768718      10.00000000      -0.06965176       0.39693250      -0.01536329
C       -3.66224620       6.22199923      10.00000000       0.39449487      -0.20233890       0.06938439
C       -2.38584244       6.87990464      10.00000000      -0.20367291       0.29796723      -0.04284183
C       -2.34260280       8.31639578      10.00000000       0.08984628       0.08328352       0.00073011
C       -1.12011677       9.07272175      10.00000000       0.23011370       0.12885137      -0.01597251
C       -1.18885840      10.50678026      10.00000000      -0.26167610      -0.17186675       0.00170310
C       -2.43055663       2.68615078      10.00000000       0.20270152      -0.26885323       0.01665912
C       -2.47816054       4.08081684      10.00000000      -0.08425002       0.31096225       0.12709480
C       -1.24980115       4.73157830      10.00000000      -0.67402186       0.36502761      -0.04282836
N       -1.23757445       6.11658101      10.00000000      -0.97579239      -1.75918229      -1.19543927
N        0.11440283       8.45981585      10.00000000      -0.92850908       1.95022174      -0.26984061
C        1.30792642       9.16224746      10.00000000      -0.35998470      -1.58406540      -0.07888701
C        1.25803020      10.55216557      10.00000000       0.27257031       0.75971621      -0.07430802
C        0.03720704       2.62807678      10.00000000      -0.22680903      -0.44950370       0.03106586
C       -0.01311689       4.01783507      10.00000000      -0.22998854      -0.17600246       0.04282501
C        1.17960686       4.71982639      10.00000000      -0.41935028       0.79468353      -0.53779181
C        2.54438514       8.44872938      10.00000000      -0.98995265      -0.90876145       0.04709808
C        3.77341498       9.09884503      10.00000000      -0.71873012      -1.91692230       0.02428075
C        3.72607066      10.49363473      10.00000000      -0.12753314       0.17067161      -0.00793341
C        2.48403183       2.67372211      10.00000000       0.07232805      -0.16792723       0.00434964
C        2.41500233       4.10756281      10.00000000       0.87048225      -0.63824236      -0.01259139
C        3.63739856       4.86418701      10.00000000      -0.70348823       1.55775320       0.03801553
C        3.68067784       6.30038185      10.00000000       1.61082712      -0.49759153      -0.35297310
C        4.95710118       6.95791183      10.00000000      -1.89448308      -0.08352198       0.03697378
C        4.99842492       8.37232189      10.00000000       0.78403087       0.33739608      -0.01076720
C        6.25024099       9.03652569      10.00000000      -0.29871912      -0.27576133       0.00549037
C        6.19948042      10.45238139      10.00000000       0.22616575       0.17301455       0.00256922
Pt       0.64722720       6.58994552      10.00000000       3.40674369       1.64649233       1.25200306
H        0.09722720       6.58994552      11.80000000       3.00980628       0.15091849       0.34224557
H        1.19722720       6.58994552      11.80000000      -2.21325500       0.11009930       0.52777724
32
Lattice="9.84 0.0 0.0 4.92 8.521689973238876 0.0 0.0 0.0 20.0" Properties=species:S:1:pos:R:3:forces:R:3 energy=-258.1190890078855 pbc="T T F"
C       -4.90407279       2.72825394      10.00000000      -0.62085575      -0.43061417      -0.00248720
C       -4.95509823       4.14406101      10.00000000       0.81511035       0.38383643       0.02843622
C       -3.70324291       4.80768718      10.00000000      -0.17263466       0.39647206      -0.00118209
C       -3.66224620       6.22199923      10.00000000       0.27125624      -0.09928815       0.00188583
C       -2.38584244       6.87990464      10.00000000      -1.16114522       1.39333440       0.02735625
C       -2.34260280       8.31639578      10.00000000      -0.26787841       0.15421427      -0.03482318
C       -1.12011677       9.07272175      10.00000000      -0.06450971       0.45570629       0.01078715
C       -1.18885840      10.50678026      10.00000000      -0.18028353      -0.17201934       0.00800325
C       -2.43055663       2.68615078      10.00000000      -0.01572292      -0.22870477       0.01256057
C       -2.47816054       4.08081684      10.00000000      -0.03029987       0.07595121       0.04932387
C       -1.24980115       4.73157830      10.00000000      -0.35382615      -0.65824634      -0.03298462
C       -1.23757445       6.11658101      10.00000000       1.78076587      -0.87239083      -0.49589678
N        0.11440283       8.45981585      10.00000000      -0.70317381       1.24053761      -0.34116357
C        1.30792642       9.16224746      10.00000000      -0.58709888      -1.38421281      -0.01449745
C        1.25803020      10.55216557      10.00000000       0.37519290       0.81886852      -0.01317007
C        0.03720704       2.62807678      10.00000000      -0.07502845      -0.46990329       0.07335244
C       -0.01311689       4.01783507      10.00000000      -0.07656052      -0.69738869       0.01237922
C        1.17960686       4.71982639      10.00000000      -0.31165658       0.71912885      -0.46074022
C        2.54438514       8.44872938      10.00000000      -0.59348356      -1.06916678      -0.01535799
C        3.77341498       9.09884503      10.00000000      -0.73150424      -1.72396475       0.02757634
C        3.72607066      10.49363473      10.00000000      -0.19379890       0.25856969       0.01172326
C        2.48403183       2.67372211      10.00000000       0.11867351      -0.08740426       0.01137438
C        2.41500233       4.10756281      10.00000000       0.68417592      -0.74834762      -0.02111490
C        3.63739856       4.86418701      10.00000000      -0.84576575       1.57470319      -0.01838119
C        3.68067784       6.30038185      10.00000000       1.67450030      -0.51202296      -0.05831839
C        4.95710118       6.95791183      10.00000000      -1.98170338      -0.20417433       0.02381451
C        4.99842492       8.37232189      10.00000000       0.76681098       0.08251853      -0.01326897
C        6.25024099       9.03652569      10.00000000      -0.17662536      -0.04972320      -0.00164843
C        6.19948042      10.45238139      10.00000000       0.27496761       0.19234263       0.00058032
Pt       0.64722720       6.58994552      10.00000000       1.96989738       1.55758043       1.83865338
H       -0.25277280       6.58994552      12.20000000       2.68365891       0.02929206      -0.42816116
H        1.54722720       6.58994552      12.20000000      -2.26431274       0.07931951      -0.20401608
31
Lattice="9.84 0.0 0.0 4.92 8.521689973238876 0.0 0.0 0.0 20.0" Properties=species:S:1:pos:R:3:forces:R:3 energy=-264.56616629648977 pbc="T T F"
C       -4.90407279       2.72825394      10.00000000      -0.23319215      -0.17196141       0.00000000
C       -4.95509823       4.14406101      10.00000000      -0.17188176       0.13040338       0.00000000
C       -3.70324291       4.80768718      10.00000000       0.07007186       0.40596075       0.00000000
C       -3.66224620       6.22199923      10.00000000       0.11082179      -0.05438915       0.00000000
C       -2.38584244       6.87990464      10.00000000      -0.31026357      -0.07018853       0.00000000
C       -2.34260280       8.31639578      10.00000000      -0.29628321       0.26313082       0.00000000
C       -1.12011677       9.07272175      10.00000000      -1.20298635       0.89010524       0.00000000
C       -1.18885840      10.50678026      10.00000000      -0.38030713      -0.13932211       0.00000000
C       -2.43055663       2.68615078      10.00000000      -0.22867746       0.19781015       0.00000000
C       -2.47816054       4.08081684      10.00000000      -0.30556244      -0.01875957       0.00000000
C       -1.24980115       4.73157830      10.00000000      -1.37969538       1.66300040       0.00000000
N       -1.23757445       6.11658101      10.00000000      -0.36336732      -1.62084242       0.00000000
C        0.11440283       8.45981585      10.00000000       0.91227730      -0.15588989       0.00000000
C        1.30792642       9.16224746      10.00000000      -1.08574528       0.33531210       0.00000000
C        1.25803020      10.55216557      10.00000000       0.31567434       0.45959755       0.00000000
C        0.03720704       2.62807678      10.00000000      -0.31880679      -0.47059957       0.00000000
C       -0.01311689       4.01783507      10.00000000       1.05368158      -0.33846834       0.00000000
C        1.17960686       4.71982639      10.00000000      -0.85292052       0.17862269       0.00000000
N        2.53175081       7.06378150      10.00000000       0.38868080       1.60346768       0.00000000
C        2.54438514       8.44872938      10.00000000       1.39244614      -1.67142365       0.00000000
C        3.77341498       9.09884503      10.00000000       0.29344573       0.03053817       0.00000000
C        3.72607066      10.49363473      10.00000000       0.22467807      -0.20137263       0.00000000
C        2.48403183       2.67372211      10.00000000       0.39196163       0.13770349       0.00000000
C        2.41500233       4.10756281      10.00000000       1.18687919      -0.87654373       0.00000000
C        3.63739856       4.86418701      10.00000000       0.29891496      -0.27369113       0.00000000
C        3.68067784       6.30038185      10.00000000       0.28859288       0.08285234       0.00000000
C        4.95710118       6.95791183      10.00000000      -0.10467458       0.06358196       0.00000000
C        4.99842492       8.37232189      10.00000000      -0.06661951      -0.40648159       0.00000000
C        6.25024099       9.03652569      10.00000000       0.16308770      -0.13596010       0.00000000
C        6.19948042      10.45238139      10.00000000       0.21965536       0.15968865       0.00000000
Pt       0.64722720       6.58994552      10.00000000      -0.00291794       0.00014233       0.00000000
33
Lattice="9.84 0.0 0.0 4.92 8.521689973238876 0.0 0.0 0.0 20.0" Properties=species:S:1:pos:R:3:forces:R:3 energy=-274.9764680941939 pbc="T T F"
C       -4.90407279       2.72825394      10.00000000      -0.12661068      -0.18879540       0.01575304
C       -4.95509823       4.14406101      10.00000000      -0.09728746       0.12720522       0.06351341
C       -3.70324291       4.80768718      10.00000000       0.01814369       0.29033091       0.00077974
C       -3.66224620       6.22199923      10.00000000      -0.06195964       0.13414670      -0.02124872
C       -2.38584244       6.87990464      10.00000000      -1.03446586       0.78626675       0.01001460
C       -2.34260280       8.31639578      10.00000000      -0.71577417       0.29084475      -0.00188255
C       -1.12011677       9.07272175      10.00000000      -1.29966121       0.70689827       0.00759922
C       -1.18885840      10.50678026      10.00000000      -0.29429866      -0.00969903      -0.02221705
C       -2.43055663       2.68615078      10.00000000      -0.41861935       0.15155974      -0.03714525
C       -2.47816054       4.08081684      10.00000000      -0.21269430      -0.20710054      -0.03376325
C       -1.24980115       4.73157830      10.00000000      -1.22330856       0.49476292       0.06887869
C       -1.23757445       6.11658101      10.00000000      -0.14367306      -1.13558750      -0.02149760
C        0.11440283       8.45981585      10.00000000       0.53849833       0.24405882       0.03211749
C        1.30792642       9.16224746      10.00000000      -0.26893419       0.70558645      -0.00384972
C        1.25803020      10.55216557      10.00000000       0.18033279       0.59525217       0.06606297
C        0.03720704       2.62807678      10.00000000      -0.08092341      -0.46064541       0.00724086
C       -0.01311689       4.01783507      10.00000000       0.84129907      -0.76528786       0.00483051
C        1.17960686       4.71982639      10.00000000      -0.41101215      -0.69463160      -0.09198400
C        2.53175081       7.06378150      10.00000000       0.16968752       0.50736757       0.82125846
C        2.54438514       8.44872938      10.00000000       0.94872172       2.28935648      -0.92781731
C        3.77341498       9.09884503      10.00000000       0.00795759       0.42866139      -0.28966715
C        3.72607066      10.49363473      10.00000000       0.13006011       0.00612451       0.00036987
C        2.48403183       2.67372211      10.00000000       0.31865649      -0.01695602      -0.03547795
C        2.41500233       4.10756281      10.00000000       0.76091120      -0.51094157       0.00154199
C        3.63739856       4.86418701      10.00000000       1.00760677       0.08756290       0.10064093
C        3.68067784       6.30038185      10.00000000       3.25358846      -2.51700820      -1.03896384
C        4.95710118       6.95791183      10.00000000       0.11404482      -0.45686358      -0.11156217
C        4.99842492       8.37232189      10.00000000       0.05011342      -0.51181420      -0.02340469
C        6.25024099       9.03652569      10.00000000       0.09161791      -0.03380910       0.04057621
C        6.19948042      10.45238139      10.00000000       0.26257846       0.25743596       0.00527594
Pt       0.64722720       6.58994552      10.00000000      -1.55234007      -0.20042379       0.09164943
H        0.64722720       6.58994552      11.55000000      -0.24517994      -0.06954413      -0.46495734
H        2.53175081       7.06378150      11.10000000      -0.49988921      -0.32275823       1.73731606
31
Lattice="9.84 0.0 0.0 4.92 8.521689973238876 0.0 0.0 0.0 20.0" Properties=species:S:1:pos:R:3:forces:R:3 energy=-262.0341448198796 pbc="T T F"
C       -4.90407279       2.72825394      10.00000000      -0.12791128      -0.13270549       0.00000000
C       -4.95509823       4.14406101      10.00000000      -0.22665021      -0.09309481       0.00000000
C       -3.70324291       4.80768718      10.00000000       0.09497905       0.19756169       0.00000000
C       -3.66224620       6.22199923      10.00000000      -0.00217906       0.28540587       0.00000000
C       -2.38584244       6.87990464      10.00000000      -0.23029045      -0.46480838       0.00000000
C       -2.34260280       8.31639578      10.00000000       0.04640018       0.08287708       0.00000000
C       -1.12011677       9.07272175      10.00000000       0.04455637       0.12046921       0.00000000
C       -1.18885840      10.50678026      10.00000000       0.04457827      -0.01393975       0.00000000
C       -2.43055663       2.68615078      10.00000000      -0.01391241       0.02338850       0.00000000
C       -2.47816054       4.08081684      10.00000000      -0.22124829      -0.14315448       0.00000000
C       -1.24980115       4.73157830      10.00000000      -0.57743607       1.04052340       0.00000000
N       -1.23757445       6.11658101      10.00000000      -1.31045706      -0.60824827       0.00000000
N        0.11440283       8.45981585      10.00000000       0.61479094       0.77098825       0.00000000
C        1.30792642       9.16224746      10.00000000      -0.99165057       0.50975128       0.00000000
C        1.25803020      10.55216557      10.00000000      -0.21737071       0.07604895       0.00000000
C        0.03720704       2.62807678      10.00000000      -0.01369627      -0.08759281       0.00000000
C       -0.01311689       4.01783507      10.00000000       1.09024690      -0.06865322       0.00000000
N        1.17960686       4.71982639      10.00000000      -0.55574506      -0.06970799       0.00000000
C        2.53175081       7.06378150      10.00000000      -1.42698602       0.16661232       0.00000000
C        2.54438514       8.44872938      10.00000000       0.21110350       0.00000917       0.00000000
C        3.77341498       9.09884503      10.00000000       0.08592746       0.42579285       0.00000000
C        3.72607066      10.49363473      10.00000000       0.26686134      -0.09213232       0.00000000
C        2.48403183       2.67372211      10.00000000      -0.06359811       0.07944002       0.00000000
C        2.41500233       4.10756281      10.00000000       0.32029370      -0.25140753       0.00000000
C        3.63739856       4.86418701      10.00000000       0.34225308      -0.31751460       0.00000000
C        3.68067784       6.30038185      10.00000000       0.93929276      -0.70438033       0.00000000
C        4.95710118       6.95791183      10.00000000       0.18411518      -0.20810420       0.00000000
C        4.99842492       8.37232189      10.00000000       0.04147940      -0.15653344       0.00000000
C        6.25024099       9.03652569      10.00000000       0.03358253      -0.11147251       0.00000000
C        6.19948042      10.45238139      10.00000000       0.13676277       0.10424231       0.00000000
Pt       0.64722720       6.58994552      10.00000000       1.48471630      -0.36141660       0.00000000
32
Lattice="9.84 0.0 0.0 4.92 8.521689973238876 0.0 0.0 0.0 20.0" Properties=species:S:1:pos:R:3:forces:R:3 energy=-264.1108011144314 pbc="T T F"
C       -4.90407279       2.72825394      10.00000000      -0.65432252      -0.40827138       0.00252298
C       -4.95509823       4.14406101      10.00000000       0.89624322       0.31544750       0.00907589
C       -3.70324291       4.80768718      10.00000000      -0.18505119       0.47157435      -0.00202565
C       -3.66224620       6.22199923      10.00000000       0.30125011      -0.14500386       0.01299680
C       -2.38584244       6.87990464      10.00000000      -1.33553791       1.28576739       0.03069472
C       -2.34260280       8.31639578      10.00000000      -0.40096147       0.26913275      -0.01370175
C       -1.12011677       9.07272175      10.00000000      -1.51393124       0.83142956       0.01884274
C       -1.18885840      10.50678026      10.00000000      -0.46457031      -0.12594148       0.00019337
C       -2.43055663       2.68615078      10.00000000      -0.08967884      -0.13842435       0.00304190
C       -2.47816054       4.08081684      10.00000000      -0.04343000       0.10997473       0.03490052
C       -1.24980115       4.73157830      10.00000000      -0.53718831      -0.57914502       0.01460858
C       -1.23757445       6.11658101      10.00000000       2.34242764      -0.32056913      -0.39376882
C        0.11440283       8.45981585      10.00000000      -0.53330993      -1.29690193      -0.27236610
C        1.30792642       9.16224746      10.00000000       0.69976354      -0.86667842       0.00343590
C        1.25803020      10.55216557      10.00000000       0.69234987       1.07981733      -0.00994777
C        0.03720704       2.62807678      10.00000000      -0.08875232      -0.56287677       0.04537373
C       -0.01311689       4.01783507      10.00000000       0.08823998      -0.68503948       0.01029880
C        1.17960686       4.71982639      10.00000000       0.40798697       0.12061357      -0.35496259
C        2.54438514       8.44872938      10.00000000      -0.27040858      -0.91013921      -0.00092680
C        3.77341498       9.09884503      10.00000000      -0.66935631      -1.73088344       0.00225031
C        3.72607066      10.49363473      10.00000000      -0.38076458       0.40070117       0.00505291
C        2.48403183       2.67372211      10.00000000       0.29703558       0.03101878       0.00888054
C        2.41500233       4.10756281      10.00000000       0.43418507      -1.03790239       0.01067946
C        3.63739856       4.86418701      10.00000000      -0.84957017       1.64530711      -0.01271153
C        3.68067784       6.30038185      10.00000000       1.58875914      -0.54331056      -0.01660308
C        4.95710118       6.95791183      10.00000000      -1.95067923      -0.26812353      -0.00112661
C        4.99842492       8.37232189      10.00000000       0.76210632      -0.19290852      -0.00552068
C        6.25024099       9.03652569      10.00000000      -0.32601521      -0.06189282       0.00037001
C        6.19948042      10.45238139      10.00000000       0.46460117       0.28200218      -0.00020557
Pt       0.64722720       6.58994552      10.00000000       1.10971821       2.98159919      -0.23602293
H        0.22222720       6.58994552      12.20000000       2.07583795       0.05708099       0.50546349
H        1.07222720       6.58994552      12.20000000      -1.86100520      -0.00476264       0.59710249
32
Lattice="9.84 0.0 0.0 4.92 8.521689973238876 0.0 0.0 0.0 20.0" Properties=species:S:1:pos:R:3:forces:R:3 energy=-254.55976271582747 pbc="T T F"
C       -4.90407279       2.72825394      10.00000000      -0.27980954      -0.19618655      -0.00363150
C       -4.95509823       4.14406101      10.00000000       0.43170602      -0.07931069      -0.02999366
C       -3.70324291       4.80768718      10.00000000      -0.05783904       0.26841265       0.00308089
C       -3.66224620       6.22199923      10.00000000       0.47847907       0.03970901      -0.01002288
C       -2.38584244       6.87990464      10.00000000      -0.14840570       0.30003624      -0.03335121
C       -2.34260280       8.31639578      10.00000000       0.06028819       0.07735329       0.01941539
C       -1.12011677       9.07272175      10.00000000       0.02056651      -0.11640387      -0.02821841
C       -1.18885840      10.50678026      10.00000000      -0.07571403      -0.06592290       0.00037112
C       -2.43055663       2.68615078      10.00000000       0.13308563      -0.22079102      -0.00181690
C       -2.47816054       4.08081684      10.00000000      -0.07285475       0.15343720       0.00443906
C       -1.24980115       4.73157830      10.00000000      -0.10179037       0.39245715      -0.02433236
N       -1.23757445       6.11658101      10.00000000       0.07516387      -0.99202488      -0.19930080
N        0.11440283       8.45981585      10.00000000      -0.46208152       0.62234558      -0.14630741
C        1.30792642       9.16224746      10.00000000       0.30110609      -1.12113159       0.02268014
C        1.25803020      10.55216557      10.00000000       0.02521062       0.59864886       0.03743395
C        0.03720704       2.62807678      10.00000000      -0.06486986      -0.16290455       0.01492671
C       -0.01311689       4.01783507      10.00000000       0.63730709      -0.05594446       0.01379887
N        1.17960686       4.71982639      10.00000000       0.03480466      -0.27226276      -0.24576707
C        2.54438514       8.44872938      10.00000000      -1.83456061      -0.87930694      -0.09735070
C        3.77341498       9.09884503      10.00000000      -0.96448364      -1.65178293      -0.00086809
C        3.72607066      10.49363473      10.00000000      -0.07245690       0.22941405       0.00086125
C        2.48403183       2.67372211      10.00000000      -0.06987888       0.00831586       0.02893803
C        2.41500233       4.10756281      10.00000000      -0.11247081      -0.54887915       0.03749794
C        3.63739856       4.86418701      10.00000000      -0.51022833       1.51554225      -0.04988822
C        3.68067784       6.30038185      10.00000000       1.36401616      -0.62613215       0.12248508
C        4.95710118       6.95791183      10.00000000      -1.62249864      -0.39637313      -0.02621106
C        4.99842492       8.37232189      10.00000000       0.81250902       0.23815114      -0.00031121
C        6.25024099       9.03652569      10.00000000      -0.30001392      -0.31045446      -0.00363185
C        6.19948042      10.45238139      10.00000000       0.14990185       0.13237352      -0.00756664
Pt       0.64722720       6.58994552      10.00000000       2.04828743       3.05405530      -0.57980064
H        0.22222720       6.58994552      12.20000000       2.12001137       0.02631559       0.59375043
H        1.07222720       6.58994552      12.20000000      -1.93547697       0.04068712       0.59451484
31
Lattice="9.84 0.0 0.0 4.92 8.521689973238876 0.0 0.0 0.0 20.0" Properties=species:S:1:pos:R:3:forces:R:3 energy=-259.3935557057849 pbc="T T F"
C       -4.90407279       2.72825394      10.00000000       0.00198487      -0.01973698       0.00000000
C       -4.95509823       4.14406101      10.00000000      -0.00846669       0.00418536       0.00000000
C       -3.70324291       4.80768718      10.00000000       0.00633392      -0.00840299       0.00000000
C       -3.66224620       6.22199923      10.00000000      -0.01521107       0.03448922       0.00000000
C       -2.38584244       6.87990464      10.00000000       0.00386991      -0.01399493       0.00000000
C       -2.34260280       8.31639578      10.00000000      -0.00737528       0.01810255       0.00000000
C       -1.12011677       9.07272175      10.00000000      -0.00872249      -0.00924525       0.00000000
C       -1.18885840      10.50678026      10.00000000       0.00183470       0.00492753       0.00000000
C       -2.43055663       2.68615078      10.00000000      -0.00390181       0.00943399       0.00000000
C       -2.47816054       4.08081684      10.00000000       0.00568302       0.00776767       0.00000000
C       -1.24980115       4.73157830      10.00000000       0.03193660       0.00594329       0.00000000
N       -1.23757445       6.11658101      10.00000000      -0.01966080      -0.00294498       0.00000000
N        0.11440283       8.45981585      10.00000000       0.01653101      -0.00424674       0.00000000
C        1.30792642       9.16224746      10.00000000       0.01627524       0.01368209       0.00000000
C        1.25803020      10.55216557      10.00000000      -0.03054061      -0.03836295       0.00000000
C        0.03720704       2.62807678      10.00000000       0.02671331       0.02880155       0.00000000
C       -0.01311689       4.01783507      10.00000000      -0.04534777      -0.01701840       0.00000000
N        1.17960686       4.71982639      10.00000000       0.03761288       0.03230833       0.00000000
N        2.53175081       7.06378150      10.00000000       0.04645068      -0.01524172       0.00000000
C        2.54438514       8.44872938      10.00000000      -0.01976578      -0.01398894       0.00000000
C        3.77341498       9.09884503      10.00000000      -0.01733672       0.00360147       0.00000000
C        3.72607066      10.49363473      10.00000000      -0.00118871      -0.01288104       0.00000000
C        2.48403183       2.67372211      10.00000000       0.00909550      -0.00651055       0.00000000
C        2.41500233       4.10756281      10.00000000      -0.00453897       0.01993499       0.00000000
C        3.63739856       4.86418701      10.00000000       0.00945763      -0.02901708       0.00000000
C        3.68067784       6.30038185      10.00000000      -0.02643297       0.02801654       0.00000000
C        4.95710118       6.95791183      10.00000000       0.02152433      -0.02503297       0.00000000
C        4.99842492       8.37232189      10.00000000      -0.00321973       0.00771526       0.00000000
C        6.25024099       9.03652569      10.00000000       0.00022483      -0.01000595       0.00000000
C        6.19948042      10.45238139      10.00000000      -0.01554295       0.00785223       0.00000000
Pt       0.64722720       6.58994552      10.00000000      -0.00249559      -0.00021307       0.00000000
32
Lattice="9.84 0.0 0.0 4.92 8.521689973238876 0.0 0.0 0.0 20.0" Properties=species:S:1:pos:R:3:forces:R:3 energy=-261.50333521578824 pbc="T T F"
C       -4.90407279       2.72825394      10.00000000      -0.60646113      -0.40691460       0.01104990
C       -4.95509823       4.14406101      10.00000000       0.96717665       0.31047969       0.04444352
C       -3.70324291       4.80768718      10.00000000      -0.21261434       0.40878606      -0.00634131
C       -3.66224620       6.22199923      10.00000000       0.32777030      -0.14001409       0.03022128
C       -2.38584244       6.87990464      10.00000000      -1.35104785       1.58311972       0.09373910
C       -2.34260280       8.31639578      10.00000000      -0.53117088       0.21004554      -0.09678606
C       -1.12011677       9.07272175      10.00000000      -1.52562728       0.61501125       0.07936121
C       -1.18885840      10.50678026      10.00000000      -0.43468171      -0.08198746      -0.00386912
C       -2.43055663       2.68615078      10.00000000      -0.02824253      -0.19049666       0.00391743
C       -2.47816054       4.08081684      10.00000000       0.01037145       0.16491706       0.06691933
C       -1.24980115       4.73157830      10.00000000      -0.24353173      -1.06216615       0.01773257
C       -1.23757445       6.11658101      10.00000000       1.39231562      -0.44663988      -0.97461844
C        0.11440283       8.45981585      10.00000000      -0.77185566      -0.89852867      -0.59918321
C        1.30792642       9.16224746      10.00000000       1.02851519      -1.01854689      -0.00890294
C        1.25803020      10.55216557      10.00000000       0.66044384       1.05514014      -0.04396571
C        0.03720704       2.62807678      10.00000000      -0.02605674      -0.52814103       0.15324682
C       -0.01311689       4.01783507      10.00000000      -0.28908202      -0.62905337       0.01051301
C        1.17960686       4.71982639      10.00000000       0.53398676      -0.19228431      -0.75659045
C        2.54438514       8.44872938      10.00000000      -0.19569812      -0.29822007      -0.11337203
C        3.77341498       9.09884503      10.00000000      -0.76318717      -1.89938555      -0.02546215
C        3.72607066      10.49363473      10.00000000      -0.38344975       0.44051510       0.01774159
C        2.48403183       2.67372211      10.00000000       0.25402108      -0.04811081      -0.01583839
C        2.41500233       4.10756281      10.00000000       0.42228255      -0.90354727      -0.02251943
C        3.63739856       4.86418701      10.00000000      -0.84358803       1.67536765      -0.02810892
C        3.68067784       6.30038185      10.00000000       1.79280793      -0.65921881      -0.12092886
C        4.95710118       6.95791183      10.00000000      -1.93107001      -0.23898652       0.01800597
C        4.99842492       8.37232189      10.00000000       0.81016438      -0.05997319      -0.00871718
C        6.25024099       9.03652569      10.00000000      -0.33684259      -0.06133593       0.01045826
C        6.19948042      10.45238139      10.00000000       0.33978070       0.22437193       0.00580505
Pt       0.64722720       6.58994552      10.00000000       1.38341887       3.04364292       4.62352273
H       -0.25277280       6.58994552      11.80000000       2.03434263       0.18659115      -1.37014049
H        1.54722720       6.58994552      11.80000000      -1.47422465      -0.15528374      -1.02552988
33
Lattice="9.84 0.0 0.0 4.92 8.521689973238876 0.0 0.0 0.0 20.0" Properties=species:S:1:pos:R:3:forces:R:3 energy=-268.59724409334405 pbc="T T F"
C       -4.90407279       2.72825394      10.00000000      -0.21199674      -0.17087801      -0.00049562
C       -4.95509823       4.14406101      10.00000000      -0.15331379       0.13932852      -0.00556375
C       -3.70324291       4.80768718      10.00000000       0.05537295       0.38351610      -0.00370162
C       -3.66224620       6.22199923      10.00000000       0.11589352      -0.07776511       0.02438717
C       -2.38584244       6.87990464      10.00000000      -0.36520009       0.06521522       0.00462792
C       -2.34260280       8.31639578      10.00000000      -0.31863846       0.19165964      -0.00220359
C       -1.12011677       9.07272175      10.00000000      -1.21946758       0.85832174       0.03475010
C       -1.18885840      10.50678026      10.00000000      -0.35460859      -0.11978823      -0.01251403
C       -2.43055663       2.68615078      10.00000000      -0.19154467       0.17441855       0.01075554
C       -2.47816054       4.08081684      10.00000000      -0.27069829       0.00868884       0.06290494
C       -1.24980115       4.73157830      10.00000000      -1.28625719       1.46250973      -0.03641274
N       -1.23757445       6.11658101      10.00000000      -0.74339384      -1.79634694      -0.74938465
C        0.11440283       8.45981585      10.00000000       0.85200016      -0.00287997      -0.51933342
C        1.30792642       9.16224746      10.00000000      -0.87087913       0.29658668       0.01890984
C        1.25803020      10.55216557      10.00000000       0.29760109       0.43094558       0.03100861
C        0.03720704       2.62807678      10.00000000      -0.30065451      -0.44167451       0.03108002
C       -0.01311689       4.01783507      10.00000000       0.83857584      -0.30006453       0.01892567
C        1.17960686       4.71982639      10.00000000      -0.79280665       0.02605448      -0.51931264
N        2.53175081       7.06378150      10.00000000       0.76895879       1.77912856      -0.74954667
C        2.54438514       8.44872938      10.00000000       1.29910855      -1.47111085      -0.03631283
C        3.77341498       9.09884503      10.00000000       0.25857621       0.00307978       0.06284344
C        3.72607066      10.49363473      10.00000000       0.18749451      -0.17799462       0.01075764
C        2.48403183       2.67372211      10.00000000       0.36627925       0.11820226      -0.01254358
C        2.41500233       4.10756281      10.00000000       1.20351358      -0.84486869       0.03473427
C        3.63739856       4.86418701      10.00000000       0.32126795      -0.20244520      -0.00215491
C        3.68067784       6.30038185      10.00000000       0.34338785      -0.05230864       0.00461908
C        4.95710118       6.95791183      10.00000000      -0.10968695       0.08699818       0.02434925
C        4.99842492       8.37232189      10.00000000      -0.05194009      -0.38401840      -0.00371657
C        6.25024099       9.03652569      10.00000000       0.14451374      -0.14477185      -0.00553850
C        6.19948042      10.45238139      10.00000000       0.19837534       0.15850595      -0.00051447
Pt       0.64722720       6.58994552      10.00000000      -0.00283268      -0.00001112       2.36252122
H       -0.05277280       6.58994552      12.20000000       3.64340237       0.13724066      -0.05572746
H        1.34722720       6.58994552      12.20000000      -3.64331900      -0.13742297      -0.05578545
32
Lattice="9.84 0.0 0.0 4.92 8.521689973238876 0.0 0.0 0.0 20.0" Properties=species:S:1:pos:R:3:forces:R:3 energy=-262.11265103689226 pbc="T T F"
C       -4.90407279       2.72825394      10.00000000      -0.64716514      -0.40823923       0.00309285
C       -4.95509823       4.14406101      10.00000000       0.91005478       0.31465532       0.01495157
C       -3.70324291       4.80768718      10.00000000      -0.18821003       0.45956471      -0.00259985
C       -3.66224620       6.22199923      10.00000000       0.30419505      -0.14812623       0.01715952
C       -2.38584244       6.87990464      10.00000000      -1.34146272       1.32505111       0.03894242
C       -2.34260280       8.31639578      10.00000000      -0.40964056       0.25821082      -0.03174611
C       -1.12011677       9.07272175      10.00000000      -1.52894072       0.80633879       0.02740315
C       -1.18885840      10.50678026      10.00000000      -0.45594336      -0.12072718      -0.00272911
C       -2.43055663       2.68615078      10.00000000      -0.08183969      -0.14708178       0.00475215
C       -2.47816054       4.08081684      10.00000000      -0.03288747       0.12045552       0.04621537
C       -1.24980115       4.73157830      10.00000000      -0.49697548      -0.66236133       0.00079072
C       -1.23757445       6.11658101      10.00000000       2.13106869      -0.37841463      -0.54392686
C        0.11440283       8.45981585      10.00000000      -0.55701882      -1.24126805      -0.34768753
C        1.30792642       9.16224746      10.00000000       0.75261255      -0.88427750      -0.00107320
C        1.25803020      10.55216557      10.00000000       0.68909160       1.06605138      -0.01479147
C        0.03720704       2.62807678      10.00000000      -0.07691083      -0.55705898       0.06777964
C       -0.01311689       4.01783507      10.00000000       0.01535280      -0.67227533       0.00554959
C        1.17960686       4.71982639      10.00000000       0.42856209       0.08370853      -0.45884260
C        2.54438514       8.44872938      10.00000000      -0.25952375      -0.80301404      -0.02659667
C        3.77341498       9.09884503      10.00000000      -0.68461476      -1.76039493       0.00188730
C        3.72607066      10.49363473      10.00000000      -0.38782016       0.41394684       0.00799221
C        2.48403183       2.67372211      10.00000000       0.28895860       0.02595013       0.00609116
C        2.41500233       4.10756281      10.00000000       0.44853552      -1.02239162       0.00196638
C        3.63739856       4.86418701      10.00000000      -0.86716275       1.63529428      -0.01797417
C        3.68067784       6.30038185      10.00000000       1.62143926      -0.56785451      -0.03400365
C        4.95710118       6.95791183      10.00000000      -1.94793092      -0.25477723       0.00294958
C        4.99842492       8.37232189      10.00000000       0.76972657      -0.18202499      -0.00821599
C        6.25024099       9.03652569      10.00000000      -0.33037502      -0.05336697       0.00099510
C        6.19948042      10.45238139      10.00000000       0.44622095       0.27048806       0.00035707
Pt       0.64722720       6.58994552      10.00000000       1.17915247       3.00658418       1.23628227
H       -0.05277280       6.58994552      12.20000000       3.73764085       0.09922412      -0.09077789
H        1.34722720       6.58994552      12.20000000      -3.42144927      -0.02656132       0.05837940
30
Lattice="9.84 0.0 0.0 4.92 8.521689973238876 0.0 0.0 0.0 20.0" Properties=species:S:1:pos:R:3:forces:R:3 energy=-245.50345134376906 pbc="T T F"
C       -4.87426994       2.71995808      10.03886131      -2.50379870       0.05125529      -1.53220143
C       -4.86371644       4.13001181       9.98595178      -2.27211963       1.87047162       0.86125011
C       -3.60849014       4.85373326       9.97183154      -3.93506771      -4.55551100       0.13765190
C       -3.62969260       6.19419417       9.97205621      -0.23457516       1.05279080      -0.46404507
C       -2.37132470       6.76510783       9.89650493      -7.00839109       9.78795379       0.88277668
C       -2.37634005       8.25562591      10.01885484       0.03772313       1.32779259      -0.54809709
C       -1.17459821       8.98798353      10.08793893       3.21512445       1.62790304      -2.09848042
C       -1.20240498      10.51083195       9.91451511      -1.64195332      -0.87431002       2.70247545
C       -2.46321959       2.69280614       9.93094039       2.24865737      -2.27714842      -0.15861042
C       -2.45561866       4.04477852       9.98249838       0.89786024       4.88658872      -0.23710354
C       -1.28590355       4.84271499       9.99919017       2.00657560      -8.12639589      -0.16513621
N       -1.30103711       6.16593370       9.92674938       8.99769781      -4.78037067       0.58279032
N        0.12693465       8.34223564       9.92030884      -1.13578854       7.02916591       1.16771630
C        1.31973809       9.20655545      10.01028210      -1.36402937      -7.03517483      -1.12939782
C        1.25109130      10.53409935       9.91128868       0.28159164       2.49492765       0.98453203
C       -0.00598361       2.60043845      10.06342733      -0.18190169      -3.03115226      -0.64901174
C        0.00750021       3.91205266      10.01944504      -2.47861252       7.36783573       0.14969862
C        1.15650192       4.67921107      10.03670058      -0.53612162       2.04200082       0.01927737
C        2.60624511       8.50460619       9.94964695      -5.20848105      -2.70164636       0.45716956
C        3.75486224       9.11872084      10.05853271       3.67088532      -3.61931422      -1.08882426
C        3.69732021      10.48249519       9.93361990      -0.53536116       1.37065483       0.91887585
C        2.41225943       2.72247366      10.08137440       3.40162401      -2.00401097      -1.35483753
C        2.41068172       4.16777478      10.02169816      -0.07791776      -3.38143991       0.84484731
C        3.59869137       4.88587075      10.09228219       3.56668552       3.58117607      -2.06536182
C        3.67852828       6.39426047       9.84281529       0.72700105      -3.95244556       1.73482644
C        5.00641533       6.96313465       9.98205956      -2.83418495      -4.68185449      -0.69283308
C        5.00393057       8.25306776       9.98681969       1.84618010      11.42380307       0.45551140
C        6.27166774       9.12519933       9.96890379      -1.75240879     -10.16727322       0.43557958
C        6.15097080      10.42227597      10.05492413       1.18138191       5.59226384       0.34020441
Pt       0.66695227       6.55815991      10.03079605       1.62545766      -0.31667808      -0.25856643
33
Lattice="9.84 0.0 0.0 4.92 8.521689973238876 0.0 0.0 0.0 20.0" Properties=species:S:1:pos:R:3:forces:R:3 energy=-270.60507531659545 pbc="T T F"
C       -4.90407279       2.72825394      10.00000000      -0.22379349      -0.16689462      -0.00070383
C       -4.95509823       4.14406101      10.00000000      -0.16867493       0.13174415      -0.00346487
C       -3.70324291       4.80768718      10.00000000       0.06459467       0.39923069      -0.00558341
C       -3.66224620       6.22199923      10.00000000       0.11034064      -0.06057728       0.01643317
C       -2.38584244       6.87990464      10.00000000      -0.33912798      -0.02656285       0.01237761
C       -2.34260280       8.31639578      10.00000000      -0.30343229       0.23424324       0.00119559
C       -1.12011677       9.07272175      10.00000000      -1.22171646       0.88740192       0.02435273
C       -1.18885840      10.50678026      10.00000000      -0.36678603      -0.13146365      -0.00597768
C       -2.43055663       2.68615078      10.00000000      -0.21006838       0.18754170       0.00578836
C       -2.47816054       4.08081684      10.00000000      -0.29121797      -0.01417997       0.04229783
C       -1.24980115       4.73157830      10.00000000      -1.34128693       1.57759868       0.00838042
N       -1.23757445       6.11658101      10.00000000      -0.57186930      -1.71188364      -0.50534743
C        0.11440283       8.45981585      10.00000000       0.89840507      -0.05901048      -0.42824804
C        1.30792642       9.16224746      10.00000000      -0.98731517       0.33222304       0.02392812
C        1.25803020      10.55216557      10.00000000       0.30915901       0.43949952       0.02413520
C        0.03720704       2.62807678      10.00000000      -0.31223938      -0.45035841       0.02419420
C       -0.01311689       4.01783507      10.00000000       0.95516278      -0.33555312       0.02394813
C        1.17960686       4.71982639      10.00000000      -0.83916233       0.08192158      -0.42819049
N        2.53175081       7.06378150      10.00000000       0.59734437       1.69469110      -0.50543043
C        2.54438514       8.44872938      10.00000000       1.35411866      -1.58610782       0.00841612
C        3.77341498       9.09884503      10.00000000       0.27907969       0.02594708       0.04225221
C        3.72607066      10.49363473      10.00000000       0.20606561      -0.19109852       0.00579729
C        2.48403183       2.67372211      10.00000000       0.37844666       0.12984871      -0.00599263
C        2.41500233       4.10756281      10.00000000       1.20567468      -0.87387456       0.02432610
C        3.63739856       4.86418701      10.00000000       0.30605791      -0.24491006       0.00121464
C        3.68067784       6.30038185      10.00000000       0.31742244       0.03933594       0.01233641
C        4.95710118       6.95791183      10.00000000      -0.10417519       0.06976658       0.01639309
C        4.99842492       8.37232189      10.00000000      -0.06115824      -0.39973783      -0.00558744
C        6.25024099       9.03652569      10.00000000       0.15987917      -0.13722123      -0.00344652
C        6.19948042      10.45238139      10.00000000       0.21022187       0.15455971      -0.00071319
Pt       0.64722720       6.58994552      10.00000000      -0.00290842       0.00017440       0.53418753
H        0.22222720       6.58994552      12.20000000       1.99093338       0.06308504       0.51799993
H        1.07222720       6.58994552      12.20000000      -1.99086555      -0.06319880       0.51796641
33
Lattice="9.84 0.0 0.0 4.92 8.521689973238876 0.0 0.0 0.0 20.0" Properties=species:S:1:pos:R:3:forces:R:3 energy=-268.4712118311915 pbc="T T F"
C       -4.90407279       2.72825394      10.00000000      -0.12518671      -0.13281020      -0.00168174
C       -4.95509823       4.14406101      10.00000000      -0.22707790      -0.09225342       0.00010452
C       -3.70324291       4.80768718      10.00000000       0.09551925       0.19195377      -0.00129259
C       -3.66224620       6.22199923      10.00000000      -0.00582081       0.28918540       0.00345843
C       -2.38584244       6.87990464      10.00000000      -0.22291981      -0.47259323      -0.01004905
C       -2.34260280       8.31639578      10.00000000       0.04099492       0.08041326       0.00615710
C       -1.12011677       9.07272175      10.00000000       0.06886098       0.12717089      -0.00815661
C       -1.18885840      10.50678026      10.00000000       0.03746890      -0.01170820       0.00524775
C       -2.43055663       2.68615078      10.00000000      -0.01802695       0.02638086      -0.00018167
C       -2.47816054       4.08081684      10.00000000      -0.22435722      -0.14405585       0.00200955
C       -1.24980115       4.73157830      10.00000000      -0.56921634       1.02986501       0.00546405
N       -1.23757445       6.11658101      10.00000000      -1.35612179      -0.61118384      -0.07365079
N        0.11440283       8.45981585      10.00000000       0.59506442       0.82179160      -0.08005251
C        1.30792642       9.16224746      10.00000000      -0.99493512       0.51132482       0.00553579
C        1.25803020      10.55216557      10.00000000      -0.21449466       0.07925871       0.00729679
C        0.03720704       2.62807678      10.00000000      -0.01433524      -0.08980069       0.00373264
C       -0.01311689       4.01783507      10.00000000       1.08647455      -0.06562041       0.00590628
N        1.17960686       4.71982639      10.00000000      -0.52854071      -0.11708197      -0.08117624
C        2.53175081       7.06378150      10.00000000      -1.37946822       0.16914777      -0.10317260
C        2.54438514       8.44872938      10.00000000       0.21297035       0.00940358       0.00868591
C        3.77341498       9.09884503      10.00000000       0.08387831       0.42681203       0.00542564
C        3.72607066      10.49363473      10.00000000       0.26960123      -0.09165717       0.00021035
C        2.48403183       2.67372211      10.00000000      -0.05341284       0.08038040       0.00485711
C        2.41500233       4.10756281      10.00000000       0.30430967      -0.25644237      -0.00518349
C        3.63739856       4.86418701      10.00000000       0.34422474      -0.32722490       0.00420387
C        3.68067784       6.30038185      10.00000000       0.93740270      -0.68705682      -0.00012069
C        4.95710118       6.95791183      10.00000000       0.18963030      -0.21066037       0.00397484
C        4.99842492       8.37232189      10.00000000       0.04287406      -0.15584740      -0.00060536
C        6.25024099       9.03652569      10.00000000       0.03331839      -0.10950206       0.00055533
C        6.19948042      10.45238139      10.00000000       0.13194039       0.10337122      -0.00181105
Pt       0.64722720       6.58994552      10.00000000       1.47766070      -0.37127222      -0.32101893
H        0.27722720       6.58994552      12.60000000      -0.51291774       0.00099393       0.32760676
H        1.01722720       6.58994552      12.60000000       0.49929844      -0.00070808       0.29105424
33
Lattice="9.84 0.0 0.0 4.92 8.521689973238876 0.0 0.0 0.0 20.0" Properties=species:S:1:pos:R:3:forces:R:3 energy=-271.2373479297845 pbc="T T F"
C       -4.90407279       2.72825394      10.00000000      -0.38817182      -0.32396965      -0.00032869
C       -4.95509823       4.14406101      10.00000000      -0.02044641       0.36155428      -0.00005170
C       -3.70324291       4.80768718      10.00000000      -0.01698921       0.24265960       0.00000293
C       -3.66224620       6.22199923      10.00000000      -0.17000995       0.19729531       0.00091739
C       -2.38584244       6.87990464      10.00000000      -1.02100634       0.74381535       0.00014688
C       -2.34260280       8.31639578      10.00000000      -0.45852517       0.00286785       0.00003861
C       -1.12011677       9.07272175      10.00000000       0.03805111       0.49122760       0.00056717
C       -1.18885840      10.50678026      10.00000000      -0.03844500      -0.00810361       0.00134792
C       -2.43055663       2.68615078      10.00000000      -0.27715517       0.09964598       0.00048900
C       -2.47816054       4.08081684      10.00000000      -0.27272391      -0.30276755       0.00444567
C       -1.24980115       4.73157830      10.00000000      -1.10748709       0.44974922       0.00003657
C       -1.23757445       6.11658101      10.00000000       1.10790447      -0.82676651      -0.03823270
N        0.11440283       8.45981585      10.00000000       0.54957145       1.59752519      -0.03312164
C        1.30792642       9.16224746      10.00000000      -2.31246050       0.11105087       0.00022722
C        1.25803020      10.55216557      10.00000000       0.08622198       0.25805216       0.00088904
C        0.03720704       2.62807678      10.00000000      -0.10226253      -0.36822116       0.00446128
C       -0.01311689       4.01783507      10.00000000       0.90377768      -0.78236236      -0.00000575
C        1.17960686       4.71982639      10.00000000      -1.23949563       0.60099559      -0.03821185
N        2.53175081       7.06378150      10.00000000       1.17123476       1.24977269      -0.03324544
C        2.54438514       8.44872938      10.00000000       1.22831051      -1.98197539       0.00027502
C        3.77341498       9.09884503      10.00000000       0.18241374       0.25388600       0.00088541
C        3.72607066      10.49363473      10.00000000       0.21429101      -0.20455308       0.00046166
C        2.48403183       2.67372211      10.00000000       0.22753321      -0.05833187       0.00094025
C        2.41500233       4.10756281      10.00000000       1.16716651      -0.48790222       0.00014424
C        3.63739856       4.86418701      10.00000000       0.22053153      -0.42968205       0.00005060
C        3.68067784       6.30038185      10.00000000       0.38145989       0.32067874       0.00053677
C        4.95710118       6.95791183      10.00000000       0.03079147      -0.06736089       0.00133983
C        4.99842492       8.37232189      10.00000000      -0.07195569      -0.48209158      -0.00032352
C        6.25024099       9.03652569      10.00000000       0.31608626       0.15888603      -0.00004611
C        6.19948042      10.45238139      10.00000000       0.21269735       0.11268140      -0.00000979
Pt       0.64722720       6.58994552      10.00000000      -0.53261238      -0.92093210      -0.02243077
H        0.64722720       6.58994552      12.60000000      -0.00920847      -0.01592287      -0.67303211
H        0.64722720       6.58994552      13.34000000       0.00687535       0.01195364       0.81750331
30
Lattice="9.84 0.0 0.0 4.92 8.521689973238876 0.0 0.0 0.0 20.0" Properties=species:S:1:pos:R:3:forces:R:3 energy=-258.05593091684375 pbc="T T F"
C       -4.90407279       2.72825394      10.00000000      -0.65713791      -0.41431039       0.00000000
C       -4.95509823       4.14406101      10.00000000       0.88549929       0.32199648       0.00000000
C       -3.70324291       4.80768718      10.00000000      -0.17966669       0.47969126       0.00000000
C       -3.66224620       6.22199923      10.00000000       0.30826373      -0.14763050       0.00000000
C       -2.38584244       6.87990464      10.00000000      -1.30362870       1.28436530       0.00000000
C       -2.34260280       8.31639578      10.00000000      -0.39894169       0.27993328       0.00000000
C       -1.12011677       9.07272175      10.00000000      -1.49869580       0.84190422       0.00000000
C       -1.18885840      10.50678026      10.00000000      -0.47256007      -0.13816175       0.00000000
C       -2.43055663       2.68615078      10.00000000      -0.09884805      -0.13010810       0.00000000
C       -2.47816054       4.08081684      10.00000000      -0.05864692       0.11907622       0.00000000
C       -1.24980115       4.73157830      10.00000000      -0.55377956      -0.47898134       0.00000000
C       -1.23757445       6.11658101      10.00000000       2.56753693      -0.26418708       0.00000000
C        0.11440283       8.45981585      10.00000000      -0.50457963      -1.39556694       0.00000000
C        1.30792642       9.16224746      10.00000000       0.65165975      -0.88475991       0.00000000
C        1.25803020      10.55216557      10.00000000       0.69399527       1.10664637       0.00000000
C        0.03720704       2.62807678      10.00000000      -0.09485198      -0.57228839       0.00000000
C       -0.01311689       4.01783507      10.00000000       0.17244013      -0.66973897       0.00000000
C        1.17960686       4.71982639      10.00000000       0.42111716       0.21877367       0.00000000
C        2.54438514       8.44872938      10.00000000      -0.25117255      -0.99582678       0.00000000
C        3.77341498       9.09884503      10.00000000      -0.65008768      -1.70841342       0.00000000
C        3.72607066      10.49363473      10.00000000      -0.36975037       0.38348501       0.00000000
C        2.48403183       2.67372211      10.00000000       0.31011316       0.04163241       0.00000000
C        2.41500233       4.10756281      10.00000000       0.39738153      -1.05175306       0.00000000
C        3.63739856       4.86418701      10.00000000      -0.83099980       1.67132320       0.00000000
C        3.68067784       6.30038185      10.00000000       1.59209399      -0.52471362       0.00000000
C        4.95710118       6.95791183      10.00000000      -1.94752853      -0.27647581       0.00000000
C        4.99842492       8.37232189      10.00000000       0.75957528      -0.19548818       0.00000000
C        6.25024099       9.03652569      10.00000000      -0.32530960      -0.07778842       0.00000000
C        6.19948042      10.45238139      10.00000000       0.47309395       0.29719329       0.00000000
Pt       0.64722720       6.58994552      10.00000000       0.97052040       2.87964939       0.00000000
33
Lattice="9.84 0.0 0.0 4.92 8.521689973238876 0.0 0.0 0.0 20.0" Properties=species:S:1:pos:R:3:forces:R:3 energy=-273.7731805841842 pbc="T T F"
C       -4.90407279       2.72825394      10.00000000      -0.35416380      -0.15623512       0.00065926
C       -4.95509823       4.14406101      10.00000000       0.14111687      -0.07841522       0.00458507
C       -3.70324291       4.80768718      10.00000000      -0.04708549       0.35777760       0.00359034
C       -3.66224620       6.22199923      10.00000000      -0.10822595       0.30709443      -0.01862342
C       -2.38584244       6.87990464      10.00000000      -1.32244164       0.90946007       0.06978067
C       -2.34260280       8.31639578      10.00000000      -0.44801039       0.32268782      -0.02794714
C       -1.12011677       9.07272175      10.00000000      -1.43884593       0.72380811       0.06480160
C       -1.18885840      10.50678026      10.00000000      -0.36311111      -0.07384381      -0.00463479
C       -2.43055663       2.68615078      10.00000000      -0.01878126       0.02489259      -0.00282262
C       -2.47816054       4.08081684      10.00000000      -0.15942221      -0.23219902      -0.00200386
C       -1.24980115       4.73157830      10.00000000      -0.62047838      -0.99912627       0.00122698
C       -1.23757445       6.11658101      10.00000000      -0.01100901      -0.10991376      -0.77081469
C        0.11440283       8.45981585      10.00000000       0.18762904      -0.39725931      -0.53353874
C        1.30792642       9.16224746      10.00000000       0.50437362       1.08691799       0.01350807
C        1.25803020      10.55216557      10.00000000       0.16095093       0.23538159       0.03494266
C        0.03720704       2.62807678      10.00000000      -0.16456795      -0.24478134       0.03480477
C       -0.01311689       4.01783507      10.00000000      -0.53579480      -1.09108054       0.01352716
C        1.17960686       4.71982639      10.00000000      -0.12967874       0.42069405      -0.53262396
C        2.53175081       7.06378150      10.00000000       0.03705818       0.09496220      -0.77189311
C        2.54438514       8.44872938      10.00000000       0.63422592       0.99113706       0.00130436
C        3.77341498       9.09884503      10.00000000       0.14699434       0.24488310      -0.00167875
C        3.72607066      10.49363473      10.00000000       0.01492361      -0.02918497      -0.00282299
C        2.48403183       2.67372211      10.00000000       0.37466823       0.07226160      -0.00468906
C        2.41500233       4.10756281      10.00000000       1.42284247      -0.71011771       0.06470310
C        3.63739856       4.86418701      10.00000000       0.45025551      -0.33363359      -0.02793329
C        3.68067784       6.30038185      10.00000000       1.29969590      -0.89485663       0.06979606
C        4.95710118       6.95791183      10.00000000       0.11461959      -0.29811764      -0.01856776
C        4.99842492       8.37232189      10.00000000       0.05038300      -0.35878866       0.00357583
C        6.25024099       9.03652569      10.00000000      -0.14935549       0.07268698       0.00461963
C        6.19948042      10.45238139      10.00000000       0.34126839       0.14381806       0.00067910
Pt       0.64722720       6.58994552      10.00000000      -0.00266396      -0.00056817       4.04741422
H       -0.05277280       6.58994552      11.80000000       1.90791830      -0.06486139      -0.86726036
H        1.34722720       6.58994552      11.80000000      -1.90798487       0.06423137      -0.86740318
33
Lattice="9.84 0.0 0.0 4.92 8.521689973238876 0.0 0.0 0.0 20.0" Properties=species:S:1:pos:R:3:forces:R:3 energy=-266.06790038935196 pbc="T T F"
C       -4.90407279       2.72825394      10.00000000       0.00190191      -0.02035592      -0.00039569
C       -4.95509823       4.14406101      10.00000000      -0.00779008       0.00378846       0.00016066
C       -3.70324291       4.80768718      10.00000000       0.00684268      -0.00802082      -0.00039345
C       -3.66224620       6.22199923      10.00000000      -0.01435191       0.03279150       0.00053278
C       -2.38584244       6.87990464      10.00000000       0.00495422      -0.01132678       0.00054086
C       -2.34260280       8.31639578      10.00000000      -0.00523563       0.01688551       0.00084635
C       -1.12011677       9.07272175      10.00000000      -0.01053329      -0.01148927       0.00055961
C       -1.18885840      10.50678026      10.00000000       0.00370696       0.00503549       0.00053483
C       -2.43055663       2.68615078      10.00000000      -0.00268357       0.00873045      -0.00008079
C       -2.47816054       4.08081684      10.00000000       0.00420988       0.00767863       0.00049730
C       -1.24980115       4.73157830      10.00000000       0.03310813       0.00708018       0.00130063
N       -1.23757445       6.11658101      10.00000000      -0.02488062      -0.00508969      -0.00514883
N        0.11440283       8.45981585      10.00000000       0.01572170       0.00136184      -0.00509032
C        1.30792642       9.16224746      10.00000000       0.01588974       0.01211253       0.00130872
C        1.25803020      10.55216557      10.00000000      -0.03118707      -0.03702042       0.00049027
C        0.03720704       2.62807678      10.00000000       0.02736353       0.02745192       0.00049420
C       -0.01311689       4.01783507      10.00000000      -0.04498626      -0.01542933       0.00131404
N        1.17960686       4.71982639      10.00000000       0.03838381       0.02664280      -0.00511791
N        2.53175081       7.06378150      10.00000000       0.05171467      -0.01310275      -0.00516492
C        2.54438514       8.44872938      10.00000000      -0.02093484      -0.01512684       0.00130105
C        3.77341498       9.09884503      10.00000000      -0.01587192       0.00368474       0.00049616
C        3.72607066      10.49363473      10.00000000      -0.00240680      -0.01217580      -0.00006959
C        2.48403183       2.67372211      10.00000000       0.00723175      -0.00662605       0.00053598
C        2.41500233       4.10756281      10.00000000      -0.00273045       0.02219660       0.00054446
C        3.63739856       4.86418701      10.00000000       0.00732047      -0.02780067       0.00083927
C        3.68067784       6.30038185      10.00000000      -0.02751914       0.02535593       0.00055257
C        4.95710118       6.95791183      10.00000000       0.02067017      -0.02333735       0.00053959
C        4.99842492       8.37232189      10.00000000      -0.00372700       0.00732955      -0.00039330
C        6.25024099       9.03652569      10.00000000      -0.00045476      -0.00960983       0.00016020
C        6.19948042      10.45238139      10.00000000      -0.01545899       0.00846992      -0.00039175
Pt       0.64722720       6.58994552      10.00000000      -0.00249270      -0.00023263       0.00726907
H        0.64722720       6.58994552      13.20000000       0.00003151       0.00002726      -0.57321605
H        0.64722720       6.58994552      13.94000000       0.00000223       0.00000895       0.57894058
32
Lattice="9.84 0.0 0.0 4.92 8.521689973238876 0.0 0.0 0.0 20.0" Properties=species:S:1:pos:R:3:forces:R:3 energy=-260.9024714451006 pbc="T T F"
C       -4.90407279       2.72825394      10.00000000      -0.64432330      -0.40842478       0.00160657
C       -4.95509823       4.14406101      10.00000000       0.92325681       0.31812596       0.01596174
C       -3.70324291       4.80768718      10.00000000      -0.19504999       0.44678950      -0.00171121
C       -3.66224620       6.22199923      10.00000000       0.30778290      -0.15043187       0.01638098
C       -2.38584244       6.87990464      10.00000000      -1.35864881       1.38187885       0.03078849
C       -2.34260280       8.31639578      10.00000000      -0.42098759       0.23967864      -0.05493395
C       -1.12011677       9.07272175      10.00000000      -1.53619365       0.77441337       0.02897735
C       -1.18885840      10.50678026      10.00000000      -0.44896277      -0.11576240      -0.00418058
C       -2.43055663       2.68615078      10.00000000      -0.07819277      -0.15294463       0.00668570
C       -2.47816054       4.08081684      10.00000000      -0.02282072       0.13271207       0.04843685
C       -1.24980115       4.73157830      10.00000000      -0.45214548      -0.73843912      -0.02949465
C       -1.23757445       6.11658101      10.00000000       2.01342792      -0.41107261      -0.58983073
C        0.11440283       8.45981585      10.00000000      -0.58130906      -1.19933563      -0.38431200
C        1.30792642       9.16224746      10.00000000       0.79574744      -0.91279481      -0.00786489
C        1.25803020      10.55216557      10.00000000       0.68647340       1.06591918      -0.01344314
C        0.03720704       2.62807678      10.00000000      -0.06245953      -0.55964074       0.07970889
C       -0.01311689       4.01783507      10.00000000      -0.06130737      -0.64336594      -0.00917520
C        1.17960686       4.71982639      10.00000000       0.46269822       0.06109213      -0.50833483
C        2.54438514       8.44872938      10.00000000      -0.25384649      -0.71475011      -0.06315455
C        3.77341498       9.09884503      10.00000000      -0.69229807      -1.79056927       0.00167183
C        3.72607066      10.49363473      10.00000000      -0.39645225       0.42417011       0.01195792
C        2.48403183       2.67372211      10.00000000       0.28567613       0.02373953       0.00396727
C        2.41500233       4.10756281      10.00000000       0.45557912      -1.00447391      -0.01213657
C        3.63739856       4.86418701      10.00000000      -0.88502591       1.63342511      -0.02521507
C        3.68067784       6.30038185      10.00000000       1.65246051      -0.59117348      -0.04620978
C        4.95710118       6.95791183      10.00000000      -1.94417548      -0.23643876       0.01369959
C        4.99842492       8.37232189      10.00000000       0.77467205      -0.17365129      -0.00981561
C        6.25024099       9.03652569      10.00000000      -0.33346185      -0.04940483       0.00007529
C        6.19948042      10.45238139      10.00000000       0.43206407       0.26291469       0.00057883
Pt       0.64722720       6.58994552      10.00000000       1.22108005       2.99944858       2.17910298
H       -0.25277280       6.58994552      12.20000000       2.65603109       0.13363459      -0.46418455
H        1.54722720       6.58994552      12.20000000      -2.29214967      -0.04456052      -0.32871185
30
Lattice="9.84 0.0 0.0 4.92 8.521689973238876 0.0 0.0 0.0 20.0" Properties=species:S:1:pos:R:3:forces:R:3 energy=-255.33339025283522 pbc="T T F"
C       -4.90407279       2.72825394      10.00000000      -0.62614496      -0.42216912       0.00000000
C       -4.95509823       4.14406101      10.00000000       0.80677305       0.37610297       0.00000000
C       -3.70324291       4.80768718      10.00000000      -0.16827156       0.43046891       0.00000000
C       -3.66224620       6.22199923      10.00000000       0.26972268      -0.09089430       0.00000000
C       -2.38584244       6.87990464      10.00000000      -1.09179863       1.32471060       0.00000000
C       -2.34260280       8.31639578      10.00000000      -0.26248603       0.16118859       0.00000000
C       -1.12011677       9.07272175      10.00000000      -0.04461155       0.50001356       0.00000000
C       -1.18885840      10.50678026      10.00000000      -0.20270990      -0.19526879       0.00000000
C       -2.43055663       2.68615078      10.00000000      -0.01728647      -0.21952322       0.00000000
C       -2.47816054       4.08081684      10.00000000      -0.06093402       0.06540553       0.00000000
C       -1.24980115       4.73157830      10.00000000      -0.40436859      -0.45285174       0.00000000
C       -1.23757445       6.11658101      10.00000000       2.33630506      -0.68950506       0.00000000
N        0.11440283       8.45981585      10.00000000      -0.71001483       0.95347080       0.00000000
C        1.30792642       9.16224746      10.00000000      -0.54612599      -1.39384368       0.00000000
C        1.25803020      10.55216557      10.00000000       0.36624619       0.85450754       0.00000000
C        0.03720704       2.62807678      10.00000000      -0.09480048      -0.47290505       0.00000000
C       -0.01311689       4.01783507      10.00000000       0.06699956      -0.72790575       0.00000000
C        1.17960686       4.71982639      10.00000000      -0.27371493       0.90467338       0.00000000
C        2.54438514       8.44872938      10.00000000      -0.58625761      -1.23980019       0.00000000
C        3.77341498       9.09884503      10.00000000      -0.73249710      -1.64866954       0.00000000
C        3.72607066      10.49363473      10.00000000      -0.15953326       0.22148994       0.00000000
C        2.48403183       2.67372211      10.00000000       0.15019782      -0.07629277       0.00000000
C        2.41500233       4.10756281      10.00000000       0.57119617      -0.79341371       0.00000000
C        3.63739856       4.86418701      10.00000000      -0.76935969       1.69655607       0.00000000
C        3.68067784       6.30038185      10.00000000       1.65668665      -0.45766257       0.00000000
C        4.95710118       6.95791183      10.00000000      -1.97719820      -0.26946722       0.00000000
C        4.99842492       8.37232189      10.00000000       0.76605883       0.08085063       0.00000000
C        6.25024099       9.03652569      10.00000000      -0.18875317      -0.07791555       0.00000000
C        6.19948042      10.45238139      10.00000000       0.28636554       0.21456705       0.00000000
Pt       0.64722720       6.58994552      10.00000000       1.64340488       1.45338435       0.00000000
31
Lattice="9.84 0.0 0.0 4.92 8.521689973238876 0.0 0.0 0.0 20.0" Properties=species:S:1:pos:R:3:forces:R:3 energy=-260.49361357320475 pbc="T T F"
C       -4.88917137       2.72410601      10.01943066      -1.10451383      -0.16552110      -0.85219105
C       -4.90940733       4.13703641       9.99297589      -1.69913215       1.40485538      -0.33384414
C       -3.65586653       4.83071022       9.98591577      -1.66030711      -2.50471300       0.04092176
C       -3.64596940       6.20809670       9.98602811      -0.66208495       0.40786791      -0.19544552
C       -2.37858357       6.82250623       9.94825247      -2.54952768       4.14865188       0.53805306
C       -2.35947143       8.28601085      10.00942742      -0.17568681      -0.41336089      -0.02240060
C       -1.14735749       9.03035264      10.04396946       1.37621028       1.02078408      -1.09982848
C       -1.19563169      10.50880611       9.95725755       0.40516773      -0.57713488       1.13595959
C       -2.44688811       2.68947846       9.96547019       0.27429431      -0.22108874       0.44750063
C       -2.46688960       4.06279768       9.99124919       0.14578304       2.16890928      -0.06501121
C       -1.26785235       4.78714665       9.99959508       1.09400278      -3.21653139      -0.10623427
N       -1.26930578       6.14125736       9.96337469       2.19455771      -2.01190253       0.15877461
N        0.12066874       8.40102575       9.96015442       0.07268784       4.57901885       0.63822925
C        1.31383226       9.18440146      10.00514105      -2.08986765      -1.85064885      -0.25664485
C        1.25456075      10.54313246       9.95564434      -0.35913748       0.82055891       0.53807816
C        0.01561171       2.61425762      10.03171367       1.03050747      -1.42000898       0.01597266
C       -0.00280834       3.96494387      10.00972252      -0.58308439       4.19848232       0.13991449
N        1.16805439       4.69951873      10.01835029      -0.77646005       0.73448475      -0.01551056
C        2.56268080       7.09171990       9.97482347      -2.46800292      -0.56264846       0.37283221
C        2.53510877       8.45866728      10.02926635       0.74030317       0.11175314      -0.58356748
C        3.75903975       9.09327526       9.96680995       0.62004213       2.31699017       0.81230688
C        3.69018446      10.51801050      10.04068720       1.18602381      -2.27852424      -0.81719936
C        2.48187153       2.70382810      10.01084908      -0.02207354      -1.80024037      -0.02852383
C        2.39564874       4.11840468      10.04614110       1.86938496       0.61529806      -1.01443675
C        3.63632378       4.91112632       9.92140765       0.88990007      -3.78354235       1.26807662
C        3.70533492       6.30299326       9.99102978      -0.41552561      -0.09456931      -0.43763099
C        4.95985400       6.89828476       9.99340984       1.59558997       4.21848241      -0.07386772
C        5.00913830       8.41665871       9.98445189      -2.35756234      -4.42949312       0.06277260
C        6.22598618       9.02147298      10.02746206       2.49148731       0.92842639      -0.31340198
C        6.20934295      10.43648858      10.01539802      -0.63822709       1.10300570       0.26645588
Pt       0.65013953       6.61900487       9.97893841       1.57405520      -3.44664411      -0.06949908
32
Lattice="9.84 0.0 0.0 4.92 8.521689973238876 0.0 0.0 0.0 20.0" Properties=species:S:1:pos:R:3:forces:R:3 energy=-253.79897655641716 pbc="T T F"
C       -4.90407279       2.72825394      10.00000000      -0.26681452      -0.19700896      -0.00400436
C       -4.95509823       4.14406101      10.00000000       0.40481447      -0.08787435      -0.06236212
C       -3.70324291       4.80768718      10.00000000      -0.03445840       0.25283429       0.00849489
C       -3.66224620       6.22199923      10.00000000       0.46889690       0.06875004      -0.01913591
C       -2.38584244       6.87990464      10.00000000      -0.19885915       0.18509685      -0.04715571
C       -2.34260280       8.31639578      10.00000000       0.06882451       0.11376898       0.03039807
C       -1.12011677       9.07272175      10.00000000       0.01369213      -0.14926456      -0.05220905
C       -1.18885840      10.50678026      10.00000000      -0.07389937      -0.05625076      -0.01169171
C       -2.43055663       2.68615078      10.00000000       0.12691742      -0.20752263      -0.00187879
C       -2.47816054       4.08081684      10.00000000      -0.09330922       0.11938096       0.02481420
C       -1.24980115       4.73157830      10.00000000      -0.16511781       0.43365155      -0.04858588
N       -1.23757445       6.11658101      10.00000000      -0.65752217      -1.15679966      -0.55951975
N        0.11440283       8.45981585      10.00000000      -0.47092932       0.97971955      -0.32067434
C        1.30792642       9.16224746      10.00000000       0.21549495      -1.12822095       0.04395392
C        1.25803020      10.55216557      10.00000000      -0.00003522       0.57417526       0.07301915
C        0.03720704       2.62807678      10.00000000      -0.06178445      -0.17185218       0.03697549
C       -0.01311689       4.01783507      10.00000000       0.61553144      -0.04570313       0.03177927
N        1.17960686       4.71982639      10.00000000       0.03369249      -0.52846134      -0.62569290
C        2.54438514       8.44872938      10.00000000      -1.81570380      -0.93632676      -0.23956492
C        3.77341498       9.09884503      10.00000000      -0.92780600      -1.66012216       0.00317980
C        3.72607066      10.49363473      10.00000000      -0.08020420       0.23122025      -0.00161794
C        2.48403183       2.67372211      10.00000000      -0.08615533      -0.00555838       0.06776425
C        2.41500233       4.10756281      10.00000000      -0.00704178      -0.51689179       0.10938380
C        3.63739856       4.86418701      10.00000000      -0.53420224       1.45567461      -0.11951011
C        3.68067784       6.30038185      10.00000000       1.44005141      -0.53567195       0.22002957
C        4.95710118       6.95791183      10.00000000      -1.62443099      -0.42574617      -0.05929316
C        4.99842492       8.37232189      10.00000000       0.80246763       0.24926490       0.00173011
C        6.25024099       9.03652569      10.00000000      -0.29971662      -0.31235578      -0.01119112
C        6.19948042      10.45238139      10.00000000       0.17367641       0.13669444      -0.01449136
Pt       0.64722720       6.58994552      10.00000000       2.53010494       3.12184721      -1.68814230
H        0.27722720       6.58994552      11.80000000      -1.58587300       0.08506315       1.54941852
H        1.01722720       6.58994552      11.80000000       2.09235114       0.11572467       1.68235715
33
Lattice="9.84 0.0 0.0 4.92 8.521689973238876 0.0 0.0 0.0 20.0" Properties=species:S:1:pos:R:3:forces:R:3 energy=-260.7524512527821 pbc="T T F"
C       -4.90407279       2.72825394      10.00000000       0.12754271      -0.11164016       0.00044733
C       -4.95509823       4.14406101      10.00000000      -0.15275709       0.09693887       0.00824080
C       -3.70324291       4.80768718      10.00000000       0.13548854      -0.06351860      -0.00057821
C       -3.66224620       6.22199923      10.00000000      -0.21294842       0.12901228       0.09313857
C       -2.38584244       6.87990464      10.00000000       0.18172068      -0.12599227      -0.11100340
C       -2.34260280       8.31639578      10.00000000      -0.19595015       0.11447866       0.00295850
C       -1.12011677       9.07272175      10.00000000       0.19105880      -0.08741320      -0.09155436
C       -1.18885840      10.50678026      10.00000000      -0.17202751       0.10951407       0.06955112
C       -2.43055663       2.68615078      10.00000000       0.15609401      -0.08732896       0.00624587
C       -2.47816054       4.08081684      10.00000000      -0.18156210       0.07267251       0.00720444
C       -1.24980115       4.73157830      10.00000000       0.23475043       0.00900870       0.00282061
N       -1.23757445       6.11658101      10.00000000      -1.73676014      -0.31852009      -0.95204472
N        0.11440283       8.45981585      10.00000000      -0.50341394       1.31784160      -0.63520164
C        1.30792642       9.16224746      10.00000000       0.10490164      -0.16677851       0.02036522
C        1.25803020      10.55216557      10.00000000      -0.16907668       0.09823721       0.00086085
C        0.03720704       2.62807678      10.00000000       0.16530062      -0.10703689       0.00097325
C       -0.01311689       4.01783507      10.00000000      -0.13276443       0.16339225       0.02033557
N        1.17960686       4.71982639      10.00000000       0.55520290      -1.28996886      -0.63530985
N        2.53175081       7.06378150      10.00000000       1.76332115       0.30259701      -0.95223754
C        2.54438514       8.44872938      10.00000000      -0.22230861      -0.01764451       0.00282569
C        3.77341498       9.09884503      10.00000000       0.16946169      -0.06179591       0.00736064
C        3.72607066      10.49363473      10.00000000      -0.16150532       0.08406732       0.00627320
C        2.48403183       2.67372211      10.00000000       0.18247680      -0.11080549       0.06955482
C        2.41500233       4.10756281      10.00000000      -0.20305223       0.09689967      -0.09153473
C        3.63739856       4.86418701      10.00000000       0.19750093      -0.12495260       0.00308186
C        3.68067784       6.30038185      10.00000000      -0.20293557       0.13936858      -0.11108058
C        4.95710118       6.95791183      10.00000000       0.21898213      -0.11934076       0.09321594
C        4.99842492       8.37232189      10.00000000      -0.13264586       0.06229823      -0.00053191
C        6.25024099       9.03652569      10.00000000       0.14517744      -0.10310205       0.00818063
C        6.19948042      10.45238139      10.00000000      -0.14064483       0.10031461       0.00049144
Pt       0.64722720       6.58994552      10.00000000      -0.00261781      -0.00057125     -11.33996200
H        0.27722720       6.58994552      11.40000000      -4.62750827       0.06093875       7.25004460
H        1.01722720       6.58994552      11.40000000       4.62764303      -0.06130585       7.25003982
33
Lattice="9.84 0.0 0.0 4.92 8.521689973238876 0.0 0.0 0.0 20.0" Properties=species:S:1:pos:R:3:forces:R:3 energy=-270.5444570614727 pbc="T T F"
C       -4.90407279       2.72825394      10.00000000      -0.26940480      -0.18325545      -0.00119745
C       -4.95509823       4.14406101      10.00000000       0.04220876       0.18372584       0.00303423
C       -3.70324291       4.80768718      10.00000000      -0.01404119       0.24740492       0.00371271
C       -3.66224620       6.22199923      10.00000000      -0.07870091       0.03198650      -0.02484041
C       -2.38584244       6.87990464      10.00000000      -1.21042521       1.23499977       0.06580784
C       -2.34260280       8.31639578      10.00000000      -0.64619535       0.33237797      -0.03146691
C       -1.12011677       9.07272175      10.00000000      -1.41118950       0.71281046       0.07771853
C       -1.18885840      10.50678026      10.00000000      -0.31983232      -0.05908439      -0.00533600
C       -2.43055663       2.68615078      10.00000000      -0.22868550       0.12483178      -0.00214595
C       -2.47816054       4.08081684      10.00000000      -0.17508112      -0.16140188      -0.00015026
C       -1.24980115       4.73157830      10.00000000      -0.71447177      -0.39243402       0.00661710
C       -1.23757445       6.11658101      10.00000000       0.25725865      -0.78164807      -0.70328304
C        0.11440283       8.45981585      10.00000000       0.37875810      -0.09784957      -0.57524660
C        1.30792642       9.16224746      10.00000000      -0.13434506       0.30016669      -0.00189110
C        1.25803020      10.55216557      10.00000000       0.30800006       0.36889787       0.02013547
C        0.03720704       2.62807678      10.00000000      -0.13882090      -0.30930650       0.01735300
C       -0.01311689       4.01783507      10.00000000       0.11153430      -0.85453743       0.02590916
C        1.17960686       4.71982639      10.00000000      -0.45332997      -0.27820220      -0.44644930
N        2.53175081       7.06378150      10.00000000       2.14858268       1.70690090      -1.07631729
C        2.54438514       8.44872938      10.00000000       1.10611702      -0.74974238      -0.13743740
C        3.77341498       9.09884503      10.00000000       0.21454448      -0.05079140       0.06618701
C        3.72607066      10.49363473      10.00000000      -0.01765916      -0.08267562       0.00517543
C        2.48403183       2.67372211      10.00000000       0.38971487       0.04976181      -0.03037671
C        2.41500233       4.10756281      10.00000000       1.22156886      -0.62700712       0.05288323
C        3.63739856       4.86418701      10.00000000       0.27668274      -0.20495107      -0.02154811
C        3.68067784       6.30038185      10.00000000       0.53056837      -0.11908368      -0.04384992
C        4.95710118       6.95791183      10.00000000      -0.09484575       0.00850266       0.01526985
C        4.99842492       8.37232189      10.00000000      -0.02608017      -0.37773606       0.00264803
C        6.25024099       9.03652569      10.00000000       0.09846364      -0.00654874       0.00268355
C        6.19948042      10.45238139      10.00000000       0.22581025       0.15400071       0.00337014
Pt       0.64722720       6.58994552      10.00000000      -1.17538342       0.11624957       5.61186040
H       -0.25277280       6.58994552      11.80000000       1.71582002       0.01680040      -1.75333154
H        1.54722720       6.58994552      11.80000000      -1.90733920      -0.25097551      -1.14602454
33
Lattice="9.84 0.0 0.0 4.92 8.521689973238876 0.0 0.0 0.0 20.0" Properties=species:S:1:pos:R:3:forces:R:3 energy=-267.1953355175788 pbc="T T F"
C       -4.90407279       2.72825394      10.00000000      -0.05841661      -0.12669444      -0.00674703
C       -4.95509823       4.14406101      10.00000000      -0.25514197      -0.07489197      -0.00338961
C       -3.70324291       4.80768718      10.00000000       0.13395803       0.08775633      -0.00435979
C       -3.66224620       6.22199923      10.00000000      -0.02976394       0.29555184       0.01388273
C       -2.38584244       6.87990464      10.00000000      -0.18171633      -0.39265786      -0.01988741
C       -2.34260280       8.31639578      10.00000000       0.00941162       0.04503346       0.01205568
C       -1.12011677       9.07272175      10.00000000       0.06354719       0.07178070      -0.00967235
C       -1.18885840      10.50678026      10.00000000       0.04810179       0.03455081       0.02161628
C       -2.43055663       2.68615078      10.00000000       0.00194514       0.03149522       0.00373480
C       -2.47816054       4.08081684      10.00000000      -0.24323100      -0.11595200       0.02672528
C       -1.24980115       4.73157830      10.00000000      -0.32861242       0.64716696       0.01500677
N       -1.23757445       6.11658101      10.00000000      -1.80869840      -0.55578039      -0.65979479
N        0.11440283       8.45981585      10.00000000       0.41195671       1.22063625      -0.64477759
C        1.30792642       9.16224746      10.00000000      -0.73494978       0.54918928       0.03559703
C        1.25803020      10.55216557      10.00000000      -0.23364118       0.03830891       0.06359511
C        0.03720704       2.62807678      10.00000000       0.01157290      -0.06008353       0.03593352
C       -0.01311689       4.01783507      10.00000000       0.65675178       0.00297068       0.02858402
N        1.17960686       4.71982639      10.00000000      -0.26333380      -0.54568538      -0.68064628
C        2.53175081       7.06378150      10.00000000      -0.74549570       0.22111710      -0.75811444
C        2.54438514       8.44872938      10.00000000       0.00005287       0.20000720       0.04040378
C        3.77341498       9.09884503      10.00000000       0.09108355       0.38812605       0.03915593
C        3.72607066      10.49363473      10.00000000       0.18972681      -0.04549857       0.00429218
C        2.48403183       2.67372211      10.00000000      -0.03452041       0.09436667       0.03095454
C        2.41500233       4.10756281      10.00000000       0.46809099      -0.17227607       0.01763954
C        3.63739856       4.86418701      10.00000000       0.30612447      -0.51036894       0.00295604
C        3.68067784       6.30038185      10.00000000       0.75842590      -0.66615052       0.04341243
C        4.95710118       6.95791183      10.00000000       0.23504865      -0.15211043       0.00688403
C        4.99842492       8.37232189      10.00000000       0.02049957      -0.16527899      -0.00226651
C        6.25024099       9.03652569      10.00000000       0.02638159      -0.06107421      -0.00239229
C        6.19948042      10.45238139      10.00000000       0.08892816       0.07174843      -0.00702674
Pt       0.64722720       6.58994552      10.00000000       1.41757454      -0.38561100      -0.79800157
H        0.27722720       6.58994552      11.80000000      -1.88254917       0.03755424       1.64045007
H        1.01722720       6.58994552      11.80000000       1.86407443      -0.00793783       1.50694166
33
Lattice="9.84 0.0 0.0 4.92 8.521689973238876 0.0 0.0 0.0 20.0" Properties=species:S:1:pos:R:3:forces:R:3 energy=-273.49645408794873 pbc="T T F"
C       -4.90407279       2.72825394      10.00000000      -0.42348509      -0.17918226       0.00078090
C       -4.95509823       4.14406101      10.00000000       0.17753330      -0.10244464      -0.00022203
C       -3.70324291       4.80768718      10.00000000      -0.06687858       0.43445718       0.00278818
C       -3.66224620       6.22199923      10.00000000      -0.09315522       0.38462767      -0.00473919
C       -2.38584244       6.87990464      10.00000000      -1.43090341       0.84543363       0.03376120
C       -2.34260280       8.31639578      10.00000000      -0.38216196       0.26026197      -0.01875060
C       -1.12011677       9.07272175      10.00000000      -1.46498639       0.81211227       0.04155133
C       -1.18885840      10.50678026      10.00000000      -0.37325165      -0.11557197       0.00099862
C       -2.43055663       2.68615078      10.00000000       0.04170334      -0.01531771       0.00455864
C       -2.47816054       4.08081684      10.00000000      -0.16212781      -0.26237184       0.01722157
C       -1.24980115       4.73157830      10.00000000      -0.59374004      -1.03493507      -0.00684132
C       -1.23757445       6.11658101      10.00000000       0.59403643       0.26780994      -0.46036003
C        0.11440283       8.45981585      10.00000000       0.13044371      -0.88069029      -0.37245689
C        1.30792642       9.16224746      10.00000000       0.58498317       1.06172135       0.00861376
C        1.25803020      10.55216557      10.00000000       0.14685357       0.24696106       0.02896535
C        0.03720704       2.62807678      10.00000000      -0.15053754      -0.25617682       0.02898790
C       -0.01311689       4.01783507      10.00000000      -0.61621012      -1.06617935       0.00864172
C        1.17960686       4.71982639      10.00000000      -0.07208577       0.90350707      -0.37222111
C        2.53175081       7.06378150      10.00000000      -0.56878345      -0.28329445      -0.46073698
C        2.54438514       8.44872938      10.00000000       0.60761570       1.02754339      -0.00682115
C        3.77341498       9.09884503      10.00000000       0.14952884       0.27506403       0.01727653
C        3.72607066      10.49363473      10.00000000      -0.04559102       0.01095872       0.00454917
C        2.48403183       2.67372211      10.00000000       0.38485636       0.11394138       0.00097056
C        2.41500233       4.10756281      10.00000000       1.44848785      -0.79830559       0.04152746
C        3.63739856       4.86418701      10.00000000       0.38462590      -0.27108859      -0.01875541
C        3.68067784       6.30038185      10.00000000       1.40837053      -0.83123844       0.03380932
C        4.95710118       6.95791183      10.00000000       0.09948177      -0.37567397      -0.00472832
C        4.99842492       8.37232189      10.00000000       0.07024806      -0.43558323       0.00276744
C        6.25024099       9.03652569      10.00000000      -0.18586644       0.09684538      -0.00019652
C        6.19948042      10.45238139      10.00000000       0.41077607       0.16679052       0.00078561
Pt       0.64722720       6.58994552      10.00000000      -0.00234316       0.00012255       1.58154775
H       -0.05277280       6.58994552      12.20000000       3.46882600      -0.01187950      -0.05012944
H        1.34722720       6.58994552      12.20000000      -3.46879354       0.01164126      -0.05012202
32
Lattice="9.84 0.0 0.0 4.92 8.521689973238876 0.0 0.0 0.0 20.0" Properties=species:S:1:pos:R:3:forces:R:3 energy=-258.54529301653355 pbc="T T F"
C       -4.90407279       2.72825394      10.00000000      -0.54255212      -0.41720636      -0.00114723
C       -4.95509823       4.14406101      10.00000000       0.75987099       0.28530532       0.00323349
C       -3.70324291       4.80768718      10.00000000      -0.10995124       0.44401076      -0.00147441
C       -3.66224620       6.22199923      10.00000000       0.40784931      -0.24593561       0.00472715
C       -2.38584244       6.87990464      10.00000000      -0.13361729       0.49608301      -0.01078761
C       -2.34260280       8.31639578      10.00000000       0.06611719       0.02821372       0.00469215
C       -1.12011677       9.07272175      10.00000000       0.25061943       0.19062363      -0.00665865
C       -1.18885840      10.50678026      10.00000000      -0.29183775      -0.19496350       0.00128266
C       -2.43055663       2.68615078      10.00000000       0.23173356      -0.30590720       0.00142059
C       -2.47816054       4.08081684      10.00000000      -0.05326807       0.38401623       0.01126810
C       -1.24980115       4.73157830      10.00000000      -0.52538947       0.30729660      -0.01183147
N       -1.23757445       6.11658101      10.00000000       0.48416228      -1.33092298      -0.08295875
N        0.11440283       8.45981585      10.00000000      -0.94775825       1.42556825      -0.04227722
C        1.30792642       9.16224746      10.00000000      -0.24848781      -1.65235265      -0.00884231
C        1.25803020      10.55216557      10.00000000       0.33625972       0.84490859      -0.00267115
C        0.03720704       2.62807678      10.00000000      -0.25351274      -0.41926873       0.00505902
C       -0.01311689       4.01783507      10.00000000      -0.18162723      -0.25609346       0.00662259
C        1.17960686       4.71982639      10.00000000      -0.37726643       1.19273511      -0.08817488
C        2.54438514       8.44872938      10.00000000      -0.94717039      -0.83494116       0.00733605
C        3.77341498       9.09884503      10.00000000      -0.78976806      -1.90326186       0.00058446
C        3.72607066      10.49363473      10.00000000      -0.11449124       0.15793100      -0.00055942
C        2.48403183       2.67372211      10.00000000       0.13534139      -0.13738688       0.00508668
C        2.41500233       4.10756281      10.00000000       0.68981536      -0.75799710       0.00131590
C        3.63739856       4.86418701      10.00000000      -0.72621391       1.70675559      -0.00234233
C        3.68067784       6.30038185      10.00000000       1.45559664      -0.61581157      -0.01126879
C        4.95710118       6.95791183      10.00000000      -1.90089335      -0.01630506       0.00110493
C        4.99842492       8.37232189      10.00000000       0.81546959       0.32021572      -0.00346855
C        6.25024099       9.03652569      10.00000000      -0.30003426      -0.27883548       0.00004283
C        6.19948042      10.45238139      10.00000000       0.20247310       0.16124399      -0.00060206
Pt       0.64722720       6.58994552      10.00000000       2.56545483       1.39266034      -0.26607910
H        0.27722720       6.58994552      12.60000000      -0.52600910       0.01712722       0.24435376
H        1.01722720       6.58994552      12.60000000       0.57524461       0.00923745       0.23941298
33
Lattice="9.84 0.0 0.0 4.92 8.521689973238876 0.0 0.0 0.0 20.0" Properties=species:S:1:pos:R:3:forces:R:3 energy=-275.54756133981437 pbc="T T F"
C       -4.90407279       2.72825394      10.00000000      -0.43487351      -0.19420574      -0.00027172
C       -4.95509823       4.14406101      10.00000000       0.16067845      -0.09521729      -0.00153615
C       -3.70324291       4.80768718      10.00000000      -0.05962225       0.45761696      -0.00011123
C       -3.66224620       6.22199923      10.00000000      -0.09455439       0.40870556       0.00226215
C       -2.38584244       6.87990464      10.00000000      -1.41672690       0.79749405       0.02685597
C       -2.34260280       8.31639578      10.00000000      -0.40038589       0.25414449      -0.00781830
C       -1.12011677       9.07272175      10.00000000      -1.43003979       0.81694068       0.02595484
C       -1.18885840      10.50678026      10.00000000      -0.36557948      -0.11882368       0.00302316
C       -2.43055663       2.68615078      10.00000000       0.03337234      -0.01279986       0.00200785
C       -2.47816054       4.08081684      10.00000000      -0.18835474      -0.28781351       0.01613771
C       -1.24980115       4.73157830      10.00000000      -0.63446619      -0.88922525       0.00752499
C       -1.23757445       6.11658101      10.00000000       0.74134739       0.32733302      -0.31117504
C        0.11440283       8.45981585      10.00000000       0.12306550      -0.87434652      -0.29684676
C        1.30792642       9.16224746      10.00000000       0.45655403       1.03082006       0.01040987
C        1.25803020      10.55216557      10.00000000       0.13167333       0.27600221       0.01972984
C        0.03720704       2.62807678      10.00000000      -0.13536259      -0.28534795       0.01975778
C       -0.01311689       4.01783507      10.00000000      -0.48780472      -1.03523413       0.01043013
C        1.17960686       4.71982639      10.00000000      -0.06465796       0.89704360      -0.29675032
C        2.53175081       7.06378150      10.00000000      -0.71613287      -0.34301926      -0.31134200
C        2.54438514       8.44872938      10.00000000       0.64843265       0.88199839       0.00757387
C        3.77341498       9.09884503      10.00000000       0.17570734       0.30043954       0.01613371
C        3.72607066      10.49363473      10.00000000      -0.03724443       0.00846188       0.00200685
C        2.48403183       2.67372211      10.00000000       0.37723120       0.11722084       0.00301594
C        2.41500233       4.10756281      10.00000000       1.41351624      -0.80319394       0.02593545
C        3.63739856       4.86418701      10.00000000       0.40283567      -0.26496355      -0.00779789
C        3.68067784       6.30038185      10.00000000       1.39425862      -0.78335540       0.02688573
C        4.95710118       6.95791183      10.00000000       0.10085016      -0.39975879       0.00224710
C        4.99842492       8.37232189      10.00000000       0.06301326      -0.45874094      -0.00011199
C        6.25024099       9.03652569      10.00000000      -0.16903258       0.08962981      -0.00151792
C        6.19948042      10.45238139      10.00000000       0.42210285       0.18181895      -0.00027179
Pt       0.64722720       6.58994552      10.00000000      -0.00230531       0.00044479      -0.37947264
H        0.27722720       6.58994552      12.20000000      -0.81141940       0.00471551       0.68452548
H        1.01722720       6.58994552      12.20000000       0.81143799      -0.00485898       0.68449814
33
Lattice="9.84 0.0 0.0 4.92 8.521689973238876 0.0 0.0 0.0 20.0" Properties=species:S:1:pos:R:3:forces:R:3 energy=-271.03898633287037 pbc="T T F"
C       -4.90407279       2.72825394      10.00000000      -0.38585624      -0.32116288      -0.00139970
C       -4.95509823       4.14406101      10.00000000      -0.01790091       0.36120237      -0.00040804
C       -3.70324291       4.80768718      10.00000000      -0.02158736       0.24106340      -0.00147256
C       -3.66224620       6.22199923      10.00000000      -0.17133190       0.20041657       0.00098783
C       -2.38584244       6.87990464      10.00000000      -1.03267008       0.73344852       0.00294825
C       -2.34260280       8.31639578      10.00000000      -0.45560745       0.00748863       0.00088246
C       -1.12011677       9.07272175      10.00000000       0.03502456       0.49964461      -0.00115044
C       -1.18885840      10.50678026      10.00000000      -0.04291170      -0.01073732       0.00268435
C       -2.43055663       2.68615078      10.00000000      -0.27955403       0.09624267       0.00032376
C       -2.47816054       4.08081684      10.00000000      -0.26470520      -0.30238754       0.01608333
C       -1.24980115       4.73157830      10.00000000      -1.10968973       0.43057373       0.00925171
C       -1.23757445       6.11658101      10.00000000       1.09497538      -0.83162653      -0.14546740
N        0.11440283       8.45981585      10.00000000       0.55814573       1.59214154      -0.10700012
C        1.30792642       9.16224746      10.00000000      -2.30429615       0.11376535       0.00288550
C        1.25803020      10.55216557      10.00000000       0.08965139       0.25766796       0.00213222
C        0.03720704       2.62807678      10.00000000      -0.10615728      -0.36012109       0.01700999
C       -0.01311689       4.01783507      10.00000000       0.89337426      -0.79143742       0.00948501
C        1.17960686       4.71982639      10.00000000      -1.24065990       0.59787120      -0.14476817
N        2.53175081       7.06378150      10.00000000       1.16791748       1.25825691      -0.11006089
C        2.54438514       8.44872938      10.00000000       1.22484495      -1.96466807       0.00050982
C        3.77341498       9.09884503      10.00000000       0.17984712       0.25687764       0.00185999
C        3.72607066      10.49363473      10.00000000       0.21285725      -0.20752377       0.00039953
C        2.48403183       2.67372211      10.00000000       0.23188508      -0.05660755       0.00164706
C        2.41500233       4.10756281      10.00000000       1.16051121      -0.50266538       0.00246410
C        3.63739856       4.86418701      10.00000000       0.22134154      -0.42564675       0.00065142
C        3.68067784       6.30038185      10.00000000       0.39495546       0.31375150      -0.00305649
C        4.95710118       6.95791183      10.00000000       0.03071680      -0.07049781       0.00243079
C        4.99842492       8.37232189      10.00000000      -0.06954791      -0.47919244      -0.00144397
C        6.25024099       9.03652569      10.00000000       0.31561515       0.16218415      -0.00058440
C        6.19948042      10.45238139      10.00000000       0.21391346       0.10797819      -0.00135659
Pt       0.64722720       6.58994552      10.00000000      -0.51655124      -0.90060761      -0.14017717
H        0.27722720       6.58994552      12.60000000      -0.52298477       0.00739876       0.27561653
H        1.01722720       6.58994552      12.60000000       0.52538061      -0.00455548       0.30068158
33
Lattice="9.84 0.0 0.0 4.92 8.521689973238876 0.0 0.0 0.0 20.0" Properties=species:S:1:pos:R:3:forces:R:3 energy=-275.4879436155302 pbc="T T F"
C       -4.90407279       2.72825394      10.00000000      -0.42949162      -0.19483439       0.00035286
C       -4.95509823       4.14406101      10.00000000       0.16788060      -0.09778354      -0.00139759
C       -3.70324291       4.80768718      10.00000000      -0.05823769       0.45407177       0.00037004
C       -3.66224620       6.22199923      10.00000000      -0.09558772       0.40742470       0.00378123
C       -2.38584244       6.87990464      10.00000000      -1.39570529       0.80074943       0.02678352
C       -2.34260280       8.31639578      10.00000000      -0.40207194       0.24383298      -0.00715488
C       -1.12011677       9.07272175      10.00000000      -1.41428875       0.79796178       0.02672677
C       -1.18885840      10.50678026      10.00000000      -0.35990277      -0.11254609       0.00377445
C       -2.43055663       2.68615078      10.00000000       0.03785534      -0.01533865       0.00281124
C       -2.47816054       4.08081684      10.00000000      -0.18860134      -0.28431195       0.01982874
C       -1.24980115       4.73157830      10.00000000      -0.62248568      -0.89507602       0.00838258
C       -1.23757445       6.11658101      10.00000000       0.69859625       0.33281961      -0.28946067
C        0.11440283       8.45981585      10.00000000       0.08620717      -0.80078444      -0.28893534
C        1.30792642       9.16224746      10.00000000       0.47087174       1.03067781       0.00836968
C        1.25803020      10.55216557      10.00000000       0.12513384       0.27664789       0.01990223
C        0.03720704       2.62807678      10.00000000      -0.12882299      -0.28597237       0.01993183
C       -0.01311689       4.01783507      10.00000000      -0.50203600      -1.03505218       0.00837532
C        1.17960686       4.71982639      10.00000000      -0.02798421       0.82347992      -0.28882704
C        2.53175081       7.06378150      10.00000000      -0.67335132      -0.34848824      -0.28962806
C        2.54438514       8.44872938      10.00000000       0.63641723       0.88780939       0.00841342
C        3.77341498       9.09884503      10.00000000       0.17596288       0.29696124       0.01984163
C        3.72607066      10.49363473      10.00000000      -0.04172024       0.01099721       0.00280702
C        2.48403183       2.67372211      10.00000000       0.37154795       0.11100352       0.00375263
C        2.41500233       4.10756281      10.00000000       1.39786812      -0.78428152       0.02669677
C        3.63739856       4.86418701      10.00000000       0.40444520      -0.25467590      -0.00714691
C        3.68067784       6.30038185      10.00000000       1.37323548      -0.78663546       0.02680001
C        4.95710118       6.95791183      10.00000000       0.10189569      -0.39848097       0.00376059
C        4.99842492       8.37232189      10.00000000       0.06162161      -0.45522119       0.00037145
C        6.25024099       9.03652569      10.00000000      -0.17619026       0.09219021      -0.00137792
C        6.19948042      10.45238139      10.00000000       0.41671451       0.18245372       0.00035745
Pt       0.64722720       6.58994552      10.00000000      -0.00233246       0.00043127      -1.20816372
H        0.64722720       6.58994552      11.80000000       0.00001254      -0.00006136      -0.12332689
H        0.64722720       6.58994552      12.54000000       0.00000139      -0.00008654       2.26024906
33
Lattice="9.84 0.0 0.0 4.92 8.521689973238876 0.0 0.0 0.0 20.0" Properties=species:S:1:pos:R:3:forces:R:3 energy=-268.86379582492157 pbc="T T F"
C       -4.90407279       2.72825394      10.00000000      -0.36754581      -0.18983604       0.00011871
C       -4.95509823       4.14406101      10.00000000       0.10289662       0.13560314      -0.00031610
C       -3.70324291       4.80768718      10.00000000      -0.03391869       0.28355678       0.00981986
C       -3.66224620       6.22199923      10.00000000      -0.05855986       0.14636124      -0.02036761
C       -2.38584244       6.87990464      10.00000000      -1.41558037       1.20490079       0.02485993
C       -2.34260280       8.31639578      10.00000000      -0.53361410       0.27971561      -0.06554843
C       -1.12011677       9.07272175      10.00000000      -1.43045204       0.80168448       0.05110626
C       -1.18885840      10.50678026      10.00000000      -0.34113228      -0.10984475      -0.00445554
C       -2.43055663       2.68615078      10.00000000      -0.15177929       0.10241736       0.00088167
C       -2.47816054       4.08081684      10.00000000      -0.17665603      -0.21090133       0.00195112
C       -1.24980115       4.73157830      10.00000000      -0.65003871      -0.74478198       0.01016402
C       -1.23757445       6.11658101      10.00000000       1.16568908      -0.14403795      -0.22787682
C        0.11440283       8.45981585      10.00000000       0.31848744      -0.66385073      -0.32864750
C        1.30792642       9.16224746      10.00000000      -0.05809167       0.42993008      -0.01401648
C        1.25803020      10.55216557      10.00000000       0.32226963       0.28752667       0.00996102
C        0.03720704       2.62807678      10.00000000      -0.19308645      -0.28081245       0.03575363
C       -0.01311689       4.01783507      10.00000000      -0.21275421      -0.96866203       0.00620070
C        1.17960686       4.71982639      10.00000000      -0.47981744       0.55772889      -0.29638422
N        2.53175081       7.06378150      10.00000000       1.55617694       1.20151384      -0.44151118
C        2.54438514       8.44872938      10.00000000       1.16292336      -0.74752984      -0.10480542
C        3.77341498       9.09884503      10.00000000       0.19717558      -0.05288542       0.03542372
C        3.72607066      10.49363473      10.00000000      -0.05922397      -0.05594510       0.00600407
C        2.48403183       2.67372211      10.00000000       0.45340895       0.13210192      -0.01871976
C        2.41500233       4.10756281      10.00000000       1.51117106      -0.79513414       0.04449462
C        3.63739856       4.86418701      10.00000000       0.07181760      -0.37649977      -0.05436580
C        3.68067784       6.30038185      10.00000000       0.47207984       0.24290392      -0.06626821
C        4.95710118       6.95791183      10.00000000      -0.07626510      -0.03520781       0.00745594
C        4.99842492       8.37232189      10.00000000      -0.03675326      -0.43339470       0.01272470
C        6.25024099       9.03652569      10.00000000       0.04924224       0.05919594       0.00158413
C        6.19948042      10.45238139      10.00000000       0.28526224       0.13123285       0.00546709
Pt       0.64722720       6.58994552      10.00000000      -1.32736424      -0.04821416       2.48855141
H       -0.50277280       6.58994552      12.20000000       1.24656354      -0.01868648      -0.79382511
H        1.79722720       6.58994552      12.20000000      -1.30099572      -0.12047863      -0.35170941
32
Lattice="9.84 0.0 0.0 4.92 8.521689973238876 0.0 0.0 0.0 20.0" Properties=species:S:1:pos:R:3:forces:R:3 energy=-264.1554346659233 pbc="T T F"
C       -4.90407279       2.72825394      10.00000000      -0.64744510      -0.41245923       0.00246760
C       -4.95509823       4.14406101      10.00000000       0.89670961       0.31991427       0.00784236
C       -3.70324291       4.80768718      10.00000000      -0.17762802       0.47125163      -0.00129859
C       -3.66224620       6.22199923      10.00000000       0.30533974      -0.15011788       0.01096862
C       -2.38584244       6.87990464      10.00000000      -1.30283637       1.28703736       0.03035087
C       -2.34260280       8.31639578      10.00000000      -0.40550441       0.25781924      -0.00998621
C       -1.12011677       9.07272175      10.00000000      -1.49469051       0.82356016       0.01836779
C       -1.18885840      10.50678026      10.00000000      -0.45983609      -0.11835568       0.00109190
C       -2.43055663       2.68615078      10.00000000      -0.09030251      -0.13685569       0.00250736
C       -2.47816054       4.08081684      10.00000000      -0.05466502       0.11492476       0.03230969
C       -1.24980115       4.73157830      10.00000000      -0.52654402      -0.53455537       0.01883714
C       -1.23757445       6.11658101      10.00000000       2.31895965      -0.34462933      -0.34448680
C        0.11440283       8.45981585      10.00000000      -0.54409029      -1.21132137      -0.24169857
C        1.30792642       9.16224746      10.00000000       0.68772510      -0.86377013       0.00228935
C        1.25803020      10.55216557      10.00000000       0.69040778       1.08833242      -0.00774073
C        0.03720704       2.62807678      10.00000000      -0.08543053      -0.56797368       0.04136174
C       -0.01311689       4.01783507      10.00000000       0.11804814      -0.68072780       0.00713276
C        1.17960686       4.71982639      10.00000000       0.41695702       0.06314077      -0.32184233
C        2.54438514       8.44872938      10.00000000      -0.23598716      -0.90616521      -0.00602586
C        3.77341498       9.09884503      10.00000000      -0.68028188      -1.72290024      -0.00040708
C        3.72607066      10.49363473      10.00000000      -0.37759146       0.40628089       0.00369478
C        2.48403183       2.67372211      10.00000000       0.29221389       0.02348251       0.00828535
C        2.41500233       4.10756281      10.00000000       0.41091247      -1.01863236       0.01148996
C        3.63739856       4.86418701      10.00000000      -0.84456070       1.66103358      -0.00811951
C        3.68067784       6.30038185      10.00000000       1.60585896      -0.54326012      -0.02194781
C        4.95710118       6.95791183      10.00000000      -1.94879405      -0.27624193      -0.00193076
C        4.99842492       8.37232189      10.00000000       0.75999995      -0.20113313      -0.00234836
C        6.25024099       9.03652569      10.00000000      -0.32324540      -0.06019188       0.00014612
C        6.19948042      10.45238139      10.00000000       0.45834383       0.28810179       0.00014666
Pt       0.64722720       6.58994552      10.00000000       1.11369770       2.91150588      -1.22924594
H        0.64722720       6.58994552      11.80000000       0.02398353      -0.00229490      -0.24045079
H        0.64722720       6.58994552      12.54000000       0.10683849       0.03646421       2.23389443
32
Lattice="9.84 0.0 0.0 4.92 8.521689973238876 0.0 0.0 0.0 20.0" Properties=species:S:1:pos:R:3:forces:R:3 energy=-256.2373983178552 pbc="T T F"
C       -4.90407279       2.72825394      10.00000000      -0.47224889      -0.40045964      -0.00328941
C       -4.95509823       4.14406101      10.00000000       0.68481304       0.26872665       0.09807577
C       -3.70324291       4.80768718      10.00000000      -0.06712625       0.37963372      -0.01884901
C       -3.66224620       6.22199923      10.00000000       0.40148252      -0.19765902       0.08232550
C       -2.38584244       6.87990464      10.00000000      -0.23998004       0.29739465      -0.06497922
C       -2.34260280       8.31639578      10.00000000       0.09604250       0.07950319      -0.00165400
C       -1.12011677       9.07272175      10.00000000       0.21915601       0.12711698      -0.01118218
C       -1.18885840      10.50678026      10.00000000      -0.25283251      -0.17096448       0.00183578
C       -2.43055663       2.68615078      10.00000000       0.19541977      -0.26135989       0.01986612
C       -2.47816054       4.08081684      10.00000000      -0.08442888       0.31081552       0.14712127
C       -1.24980115       4.73157830      10.00000000      -0.68145906       0.33402531      -0.07549089
N       -1.23757445       6.11658101      10.00000000      -1.23831957      -1.84147408      -1.45725771
N        0.11440283       8.45981585      10.00000000      -0.90363869       2.00181162      -0.27912719
C        1.30792642       9.16224746      10.00000000      -0.38325968      -1.57343881      -0.08434102
C        1.25803020      10.55216557      10.00000000       0.26891153       0.74832265      -0.08921162
C        0.03720704       2.62807678      10.00000000      -0.21808324      -0.45233775       0.03112555
C       -0.01311689       4.01783507      10.00000000      -0.25442198      -0.14894906       0.04073809
C        1.17960686       4.71982639      10.00000000      -0.43115294       0.77956846      -0.50989709
C        2.54438514       8.44872938      10.00000000      -0.98719379      -0.88059898       0.02669431
C        3.77341498       9.09884503      10.00000000      -0.69715324      -1.92746858       0.03395397
C        3.72607066      10.49363473      10.00000000      -0.13662434       0.17492037      -0.00693245
C        2.48403183       2.67372211      10.00000000       0.06337732      -0.15957012      -0.00367439
C        2.41500233       4.10756281      10.00000000       0.90695716      -0.62617606      -0.03512215
C        3.63739856       4.86418701      10.00000000      -0.71247756       1.51919115       0.04279512
C        3.68067784       6.30038185      10.00000000       1.67234878      -0.48894064      -0.42515749
C        4.95710118       6.95791183      10.00000000      -1.88909265      -0.08525386       0.05120254
C        4.99842492       8.37232189      10.00000000       0.78430213       0.33953489      -0.01577093
C        6.25024099       9.03652569      10.00000000      -0.30191983      -0.27034624       0.00656501
C        6.19948042      10.45238139      10.00000000       0.22646228       0.17275506       0.00352348
Pt       0.64722720       6.58994552      10.00000000       3.42652947       1.65126101       3.07093452
H       -0.05277280       6.58994552      11.80000000       2.95713672       0.17093297      -0.38266438
H        1.34722720       6.58994552      11.80000000      -1.94537482       0.13779875      -0.22752677
33
Lattice="9.84 0.0 0.0 4.92 8.521689973238876 0.0 0.0 0.0 20.0" Properties=species:S:1:pos:R:3:forces:R:3 energy=-268.28526700893855 pbc="T T F"
C       -4.90407279       2.72825394      10.00000000      -0.25161013      -0.26404704      -0.00176686
C       -4.95509823       4.14406101      10.00000000      -0.00261185       0.35097853       0.00188846
C       -3.70324291       4.80768718      10.00000000      -0.02915207       0.19544186       0.00383139
C       -3.66224620       6.22199923      10.00000000      -0.18253801      -0.00192534      -0.06241778
C       -2.38584244       6.87990464      10.00000000      -0.96675852       1.11249183       0.06263525
C       -2.34260280       8.31639578      10.00000000      -0.39436982       0.09950922       0.00052389
C       -1.12011677       9.07272175      10.00000000      -0.24030899       0.39340801       0.07114731
C       -1.18885840      10.50678026      10.00000000      -0.02821058      -0.01253507       0.01127797
C       -2.43055663       2.68615078      10.00000000      -0.19852306      -0.01256835       0.01183200
C       -2.47816054       4.08081684      10.00000000      -0.06476006      -0.09512647       0.08838762
C       -1.24980115       4.73157830      10.00000000      -0.73108032      -0.23479743       0.00479214
C       -1.23757445       6.11658101      10.00000000       0.09215906      -1.17421146      -1.02097144
N        0.11440283       8.45981585      10.00000000       0.26252532       1.83941813      -0.80403056
C        1.30792642       9.16224746      10.00000000      -1.46016404      -0.02321504      -0.03317764
C        1.25803020      10.55216557      10.00000000       0.07358179       0.26625175       0.02993606
C        0.03720704       2.62807678      10.00000000      -0.06292016      -0.19767213       0.12932468
C       -0.01311689       4.01783507      10.00000000       0.26196342      -0.67295022       0.06435880
C        1.17960686       4.71982639      10.00000000      -1.06447789       0.07327333      -0.82435425
N        2.53175081       7.06378150      10.00000000       1.79468338       1.46143034      -1.20148245
C        2.54438514       8.44872938      10.00000000       0.66987254      -1.15615152      -0.15189381
C        3.77341498       9.09884503      10.00000000       0.13864006       0.15740742       0.05715683
C        3.72607066      10.49363473      10.00000000       0.07748487      -0.17096646       0.01328361
C        2.48403183       2.67372211      10.00000000       0.13109359      -0.17057260      -0.04743435
C        2.41500233       4.10756281      10.00000000       1.08145074      -0.20895602       0.07002707
C        3.63739856       4.86418701      10.00000000       0.39227216      -0.10167720      -0.02321626
C        3.68067784       6.30038185      10.00000000       0.66797213      -0.40087094      -0.02047330
C        4.95710118       6.95791183      10.00000000      -0.07459599       0.01914501       0.02068196
C        4.99842492       8.37232189      10.00000000      -0.02554024      -0.34308287       0.00408892
C        6.25024099       9.03652569      10.00000000       0.25701804       0.13101911      -0.00281670
C        6.19948042      10.45238139      10.00000000       0.17659961       0.10528951      -0.00091117
Pt       0.64722720       6.58994552      10.00000000      -0.13658130      -0.68297415       6.60968096
H       -0.25277280       6.58994552      11.80000000       1.64051360      -0.04282652      -1.75579722
H        1.54722720       6.58994552      11.80000000      -1.80068400      -0.23800347      -1.22899589
32
Lattice="9.84 0.0 0.0 4.92 8.521689973238876 0.0 0.0 0.0 20.0" Properties=species:S:1:pos:R:3:forces:R:3 energy=-263.48064306583166 pbc="T T F"
C       -4.90407279       2.72825394      10.00000000      -0.61893835      -0.40660779       0.01119361
C       -4.95509823       4.14406101      10.00000000       0.91488709       0.30716152       0.02781539
C       -3.70324291       4.80768718      10.00000000      -0.18001162       0.44951848      -0.00565673
C       -3.66224620       6.22199923      10.00000000       0.30133138      -0.14559851       0.03082447
C       -2.38584244       6.87990464      10.00000000      -1.24713340       1.33775272       0.10461310
C       -2.34260280       8.31639578      10.00000000      -0.46878975       0.26964882      -0.03107403
C       -1.12011677       9.07272175      10.00000000      -1.50976317       0.73518969       0.06966405
C       -1.18885840      10.50678026      10.00000000      -0.44908624      -0.09359208      -0.00391855
C       -2.43055663       2.68615078      10.00000000      -0.05944609      -0.15724423       0.00118860
C       -2.47816054       4.08081684      10.00000000      -0.04846535       0.11640486       0.06787566
C       -1.24980115       4.73157830      10.00000000      -0.40329649      -0.67660358       0.07353036
C       -1.23757445       6.11658101      10.00000000       1.68461386      -0.46057006      -0.98365154
C        0.11440283       8.45981585      10.00000000      -0.65126273      -0.94603775      -0.64187466
C        1.30792642       9.16224746      10.00000000       0.81981134      -0.91421488       0.01240901
C        1.25803020      10.55216557      10.00000000       0.67559217       1.06172478      -0.03385257
C        0.03720704       2.62807678      10.00000000      -0.06587281      -0.53358263       0.12102943
C       -0.01311689       4.01783507      10.00000000      -0.01042862      -0.70700881       0.04094104
C        1.17960686       4.71982639      10.00000000       0.41887673      -0.15678875      -0.74978808
C        2.54438514       8.44872938      10.00000000      -0.17372806      -0.63728063      -0.00284808
C        3.77341498       9.09884503      10.00000000      -0.74428750      -1.78832392      -0.00374121
C        3.72607066      10.49363473      10.00000000      -0.35393555       0.41661598       0.01141843
C        2.48403183       2.67372211      10.00000000       0.26375464      -0.03095813      -0.00479831
C        2.41500233       4.10756281      10.00000000       0.43271014      -0.94839063       0.01448494
C        3.63739856       4.86418701      10.00000000      -0.81913275       1.64454795      -0.01465065
C        3.68067784       6.30038185      10.00000000       1.65449813      -0.56489420      -0.06303959
C        4.95710118       6.95791183      10.00000000      -1.93880898      -0.28722394      -0.00124494
C        4.99842492       8.37232189      10.00000000       0.77768470      -0.12245823      -0.01125000
C        6.25024099       9.03652569      10.00000000      -0.31925539      -0.05796129       0.00694660
C        6.19948042      10.45238139      10.00000000       0.39085386       0.25070934       0.00136758
Pt       0.64722720       6.58994552      10.00000000       1.15968054       2.98761134       0.00916497
H        0.22222720       6.58994552      11.80000000       0.84849953       0.09648794       0.82215650
H        1.07222720       6.58994552      11.80000000      -0.27490938      -0.03611055       1.12487777
33
Lattice="9.84 0.0 0.0 4.92 8.521689973238876 0.0 0.0 0.0 20.0" Properties=species:S:1:pos:R:3:forces:R:3 energy=-271.21444297488205 pbc="T T F"
C       -4.90407279       2.72825394      10.00000000      -0.38485355      -0.31935705      -0.00023291
C       -4.95509823       4.14406101      10.00000000      -0.01877877       0.35737004      -0.00001714
C       -3.70324291       4.80768718      10.00000000      -0.01865993       0.24176036      -0.00032100
C       -3.66224620       6.22199923      10.00000000      -0.16933994       0.20138168       0.00074256
C       -2.38584244       6.87990464      10.00000000      -1.02731172       0.73919711       0.00044060
C       -2.34260280       8.31639578      10.00000000      -0.45308721       0.00962223       0.00006370
C       -1.12011677       9.07272175      10.00000000       0.03632632       0.49645626      -0.00089933
C       -1.18885840      10.50678026      10.00000000      -0.04345284      -0.01486561       0.00059292
C       -2.43055663       2.68615078      10.00000000      -0.27734704       0.09792139       0.00015105
C       -2.47816054       4.08081684      10.00000000      -0.27035602      -0.30353667       0.00315037
C       -1.24980115       4.73157830      10.00000000      -1.10359956       0.43440193       0.00127660
C       -1.23757445       6.11658101      10.00000000       1.14120420      -0.80201970      -0.02442040
N        0.11440283       8.45981585      10.00000000       0.54936746       1.55495847      -0.01575716
C        1.30792642       9.16224746      10.00000000      -2.29322476       0.11053443       0.00039866
C        1.25803020      10.55216557      10.00000000       0.08584226       0.25658965       0.00031410
C        0.03720704       2.62807678      10.00000000      -0.10401292      -0.36554978       0.00357868
C       -0.01311689       4.01783507      10.00000000       0.89110359      -0.78666923       0.00100891
C        1.17960686       4.71982639      10.00000000      -1.23598537       0.64340442      -0.02531807
N        2.53175081       7.06378150      10.00000000       1.13335902       1.22773524      -0.01472121
C        2.54438514       8.44872938      10.00000000       1.21700302      -1.96103863      -0.00037240
C        3.77341498       9.09884503      10.00000000       0.18126900       0.25331684      -0.00005619
C        3.72607066      10.49363473      10.00000000       0.21361877      -0.20467751       0.00020463
C        2.48403183       2.67372211      10.00000000       0.23106192      -0.05497700       0.00102409
C        2.41500233       4.10756281      10.00000000       1.16540436      -0.49553697      -0.00013820
C        3.63739856       4.86418701      10.00000000       0.22202631      -0.42276553       0.00001666
C        3.68067784       6.30038185      10.00000000       0.38931080       0.31829649      -0.00169013
C        4.95710118       6.95791183      10.00000000       0.02764004      -0.07413490       0.00037596
C        4.99842492       8.37232189      10.00000000      -0.06939971      -0.47690120      -0.00025366
C        6.25024099       9.03652569      10.00000000       0.31257196       0.15933526      -0.00011181
C        6.19948042      10.45238139      10.00000000       0.21300664       0.11050343      -0.00016118
Pt       0.64722720       6.58994552      10.00000000      -0.53161428      -0.92174182      -0.05123552
H        0.27722720       6.58994552      13.20000000      -0.49424541       0.00326567       0.05522932
H        1.01722720       6.58994552      13.20000000       0.49510930      -0.00240564       0.06742199
33
Lattice="9.84 0.0 0.0 4.92 8.521689973238876 0.0 0.0 0.0 20.0" Properties=species:S:1:pos:R:3:forces:R:3 energy=-265.0778382384604 pbc="T T F"
C       -4.90407279       2.72825394      10.00000000      -0.02475003      -0.13284839      -0.00724904
C       -4.95509823       4.14406101      10.00000000      -0.25628023      -0.05143469       0.00087986
C       -3.70324291       4.80768718      10.00000000       0.13351340       0.03758985      -0.00536031
C       -3.66224620       6.22199923      10.00000000      -0.00930091       0.23482713       0.02122219
C       -2.38584244       6.87990464      10.00000000      -0.20080244      -0.19268619      -0.11076904
C       -2.34260280       8.31639578      10.00000000       0.00123229      -0.03063545       0.04475223
C       -1.12011677       9.07272175      10.00000000       0.05870202       0.02152901      -0.00862030
C       -1.18885840      10.50678026      10.00000000       0.06730416       0.05531994       0.02195193
C       -2.43055663       2.68615078      10.00000000       0.02725977       0.01814340       0.00225762
C       -2.47816054       4.08081684      10.00000000      -0.23857755      -0.04526843       0.01022724
C       -1.24980115       4.73157830      10.00000000      -0.13636124       0.38750671      -0.03113124
N       -1.23757445       6.11658101      10.00000000      -2.11379918      -0.69242016      -1.24107054
N        0.11440283       8.45981585      10.00000000       0.39682004       1.23425120      -0.70099327
C        1.30792642       9.16224746      10.00000000      -0.54368537       0.48764490       0.02479843
C        1.25803020      10.55216557      10.00000000      -0.23906740       0.03700318       0.07101453
C        0.03720704       2.62807678      10.00000000       0.02594947      -0.05847040       0.03972257
C       -0.01311689       4.01783507      10.00000000       0.40432117       0.09157905       0.05944362
N        1.17960686       4.71982639      10.00000000      -0.21947519      -0.59998340      -0.70681838
C        2.53175081       7.06378150      10.00000000      -0.27143561       0.33595771      -0.77367176
C        2.54438514       8.44872938      10.00000000      -0.18175186       0.46357953      -0.01340869
C        3.77341498       9.09884503      10.00000000       0.05605168       0.31392476       0.02259730
C        3.72607066      10.49363473      10.00000000       0.14510557      -0.00867197       0.00808360
C        2.48403183       2.67372211      10.00000000      -0.03330462       0.09605530       0.03485786
C        2.41500233       4.10756281      10.00000000       0.53657090      -0.11120551       0.01975496
C        3.63739856       4.86418701      10.00000000       0.30425623      -0.52386214      -0.01062797
C        3.68067784       6.30038185      10.00000000       0.82871928      -0.86715473       0.01651457
C        4.95710118       6.95791183      10.00000000       0.22906545      -0.08915085      -0.00075616
C        4.99842492       8.37232189      10.00000000       0.03666131      -0.15843801       0.00304655
C        6.25024099       9.03652569      10.00000000       0.00289729      -0.04857523      -0.00023426
C        6.19948042      10.45238139      10.00000000       0.05440012       0.05912801      -0.01338398
Pt       0.64722720       6.58994552      10.00000000       1.10635376      -0.37386570       4.61175083
H       -0.25277280       6.58994552      11.80000000       1.75963532       0.07303939      -0.21438518
H        1.54722720       6.58994552      11.80000000      -1.69855258       0.03761283      -1.19984372
32
Lattice="9.84 0.0 0.0 4.92 8.521689973238876 0.0 0.0 0.0 20.0" Properties=species:S:1:pos:R:3:forces:R:3 energy=-255.1760940952965 pbc="T T F"
C       -4.90407279       2.72825394      10.00000000      -0.28509882      -0.19701074      -0.00010760
C       -4.95509823       4.14406101      10.00000000       0.45016688      -0.06864578      -0.00086285
C       -3.70324291       4.80768718      10.00000000      -0.06585381       0.26946450       0.00005741
C       -3.66224620       6.22199923      10.00000000       0.49855987       0.02545945      -0.00033317
C       -2.38584244       6.87990464      10.00000000      -0.14718301       0.39174127      -0.00067805
C       -2.34260280       8.31639578      10.00000000       0.06741602       0.06057241       0.00077556
C       -1.12011677       9.07272175      10.00000000      -0.02647543      -0.10606062      -0.00021758
C       -1.18885840      10.50678026      10.00000000      -0.06947095      -0.07513597      -0.00007361
C       -2.43055663       2.68615078      10.00000000       0.14361526      -0.22730614      -0.00017839
C       -2.47816054       4.08081684      10.00000000      -0.06078019       0.17728227      -0.00017121
C       -1.24980115       4.73157830      10.00000000      -0.04881783       0.32603284       0.00033650
N       -1.23757445       6.11658101      10.00000000       0.51731723      -0.87748274       0.00126827
N        0.11440283       8.45981585      10.00000000      -0.44217621       0.40066944      -0.00069477
C        1.30792642       9.16224746      10.00000000       0.36309643      -1.11830380       0.00124581
C        1.25803020      10.55216557      10.00000000       0.03916773       0.59346679       0.00067367
C        0.03720704       2.62807678      10.00000000      -0.06693573      -0.14433149       0.00013865
C       -0.01311689       4.01783507      10.00000000       0.61316888      -0.06036627       0.00060045
N        1.17960686       4.71982639      10.00000000       0.00268428      -0.08644356      -0.00135462
C        2.54438514       8.44872938      10.00000000      -1.81769576      -0.87589844      -0.00083849
C        3.77341498       9.09884503      10.00000000      -0.97475872      -1.66062129      -0.00010610
C        3.72607066      10.49363473      10.00000000      -0.08244027       0.23288632      -0.00003401
C        2.48403183       2.67372211      10.00000000      -0.08016480       0.02058718       0.00035851
C        2.41500233       4.10756281      10.00000000      -0.09895544      -0.56160103       0.00090386
C        3.63739856       4.86418701      10.00000000      -0.54525283       1.52801556      -0.00073284
C        3.68067784       6.30038185      10.00000000       1.36038995      -0.61630106       0.00384277
C        4.95710118       6.95791183      10.00000000      -1.63362314      -0.37983576      -0.00070112
C        4.99842492       8.37232189      10.00000000       0.81847685       0.23209327       0.00000505
C        6.25024099       9.03652569      10.00000000      -0.29920382      -0.29981807      -0.00019252
C        6.19948042      10.45238139      10.00000000       0.15428483       0.12416993      -0.00030719
Pt       0.64722720       6.58994552      10.00000000       1.71478030       2.97242140      -0.00249723
H        0.27722720       6.58994552      14.00000000      -0.50339829      -0.00021986       0.00549183
H        1.01722720       6.58994552      14.00000000       0.50526443       0.00096005      -0.00293572
30
Lattice="9.84 0.0 0.0 4.92 8.521689973238876 0.0 0.0 0.0 20.0" Properties=species:S:1:pos:R:3:forces:R:3 energy=-248.51266175787086 pbc="T T F"
C       -4.90407279       2.72825394      10.00000000      -0.28562829      -0.19716244       0.00000000
C       -4.95509823       4.14406101      10.00000000       0.45022261      -0.06787819       0.00000000
C       -3.70324291       4.80768718      10.00000000      -0.06622628       0.26996990       0.00000000
C       -3.66224620       6.22199923      10.00000000       0.49875166       0.02497692       0.00000000
C       -2.38584244       6.87990464      10.00000000      -0.14704985       0.39285679       0.00000000
C       -2.34260280       8.31639578      10.00000000       0.06765697       0.06021573       0.00000000
C       -1.12011677       9.07272175      10.00000000      -0.02908745      -0.10650572       0.00000000
C       -1.18885840      10.50678026      10.00000000      -0.06905304      -0.07482566       0.00000000
C       -2.43055663       2.68615078      10.00000000       0.14350108      -0.22679343       0.00000000
C       -2.47816054       4.08081684      10.00000000      -0.06098076       0.17751682       0.00000000
C       -1.24980115       4.73157830      10.00000000      -0.04774982       0.32704563       0.00000000
N       -1.23757445       6.11658101      10.00000000       0.52116628      -0.87600636       0.00000000
N        0.11440283       8.45981585      10.00000000      -0.44015370       0.39504981       0.00000000
C        1.30792642       9.16224746      10.00000000       0.36341923      -1.11989834       0.00000000
C        1.25803020      10.55216557      10.00000000       0.03862853       0.59325719       0.00000000
C        0.03720704       2.62807678      10.00000000      -0.06669049      -0.14398479       0.00000000
C       -0.01311689       4.01783507      10.00000000       0.61263083      -0.05909516       0.00000000
N        1.17960686       4.71982639      10.00000000       0.00206323      -0.08036181       0.00000000
C        2.54438514       8.44872938      10.00000000      -1.81782967      -0.87281692       0.00000000
C        3.77341498       9.09884503      10.00000000      -0.97457751      -1.66228606       0.00000000
C        3.72607066      10.49363473      10.00000000      -0.08251561       0.23267135       0.00000000
C        2.48403183       2.67372211      10.00000000      -0.08021065       0.02111177       0.00000000
C        2.41500233       4.10756281      10.00000000      -0.09739163      -0.56062683       0.00000000
C        3.63739856       4.86418701      10.00000000      -0.54655890       1.52934418       0.00000000
C        3.68067784       6.30038185      10.00000000       1.36730958      -0.62015568       0.00000000
C        4.95710118       6.95791183      10.00000000      -1.63555068      -0.38023567       0.00000000
C        4.99842492       8.37232189      10.00000000       0.81755536       0.23125000       0.00000000
C        6.25024099       9.03652569      10.00000000      -0.29887012      -0.30016393       0.00000000
C        6.19948042      10.45238139      10.00000000       0.15464871       0.12406691       0.00000000
Pt       0.64722720       6.58994552      10.00000000       1.71408957       2.97262371       0.00000000
33
Lattice="9.84 0.0 0.0 4.92 8.521689973238876 0.0 0.0 0.0 20.0" Properties=species:S:1:pos:R:3:forces:R:3 energy=-268.69547821395497 pbc="T T F"
C       -4.90407279       2.72825394      10.00000000      -0.12814825      -0.13315513      -0.00006831
C       -4.95509823       4.14406101      10.00000000      -0.22623818      -0.09331971      -0.00009035
C       -3.70324291       4.80768718      10.00000000       0.09509693       0.19782865       0.00003587
C       -3.66224620       6.22199923      10.00000000      -0.00142464       0.28413323       0.00013050
C       -2.38584244       6.87990464      10.00000000      -0.22766235      -0.46463059      -0.00066774
C       -2.34260280       8.31639578      10.00000000       0.04818224       0.08245832       0.00064524
C       -1.12011677       9.07272175      10.00000000       0.04729759       0.11864685      -0.00012950
C       -1.18885840      10.50678026      10.00000000       0.04445562      -0.01425483       0.00014899
C       -2.43055663       2.68615078      10.00000000      -0.01506239       0.02372025      -0.00005645
C       -2.47816054       4.08081684      10.00000000      -0.22111907      -0.14218547       0.00002727
C       -1.24980115       4.73157830      10.00000000      -0.57523651       1.04269474       0.00076342
N       -1.23757445       6.11658101      10.00000000      -1.30346131      -0.60349461       0.00026772
N        0.11440283       8.45981585      10.00000000       0.61375222       0.76391475      -0.00065250
C        1.30792642       9.16224746      10.00000000      -0.99460694       0.50670374       0.00064635
C        1.25803020      10.55216557      10.00000000      -0.21778313       0.07577690       0.00013860
C        0.03720704       2.62807678      10.00000000      -0.01307868      -0.08657139       0.00007397
C       -0.01311689       4.01783507      10.00000000       1.09287053      -0.06564822       0.00056931
N        1.17960686       4.71982639      10.00000000      -0.55512325      -0.06362552      -0.00059716
C        2.53175081       7.06378150      10.00000000      -1.43307088       0.16369909      -0.00090845
C        2.54438514       8.44872938      10.00000000       0.20949394      -0.00107486       0.00080573
C        3.77341498       9.09884503      10.00000000       0.08534192       0.42556864       0.00013240
C        3.72607066      10.49363473      10.00000000       0.26748794      -0.09208639      -0.00003429
C        2.48403183       2.67372211      10.00000000      -0.06392028       0.07912987       0.00013735
C        2.41500233       4.10756281      10.00000000       0.31748710      -0.24960899      -0.00003204
C        3.63739856       4.86418701      10.00000000       0.34076072      -0.31737113       0.00044273
C        3.68067784       6.30038185      10.00000000       0.93815215      -0.70511060       0.00002646
C        4.95710118       6.95791183      10.00000000       0.18423813      -0.20777716       0.00014168
C        4.99842492       8.37232189      10.00000000       0.04137942      -0.15686642       0.00010144
C        6.25024099       9.03652569      10.00000000       0.03417566      -0.11046530      -0.00005941
C        6.19948042      10.45238139      10.00000000       0.13784637       0.10476127      -0.00011684
Pt       0.64722720       6.58994552      10.00000000       1.48299411      -0.36177117      -0.00461993
H        0.27722720       6.58994552      14.00000000      -0.50068187       0.00041289       0.00675860
H        1.01722720       6.58994552      14.00000000       0.50143307       0.00006114      -0.00064086
33
Lattice="9.84 0.0 0.0 4.92 8.521689973238876 0.0 0.0 0.0 20.0" Properties=species:S:1:pos:R:3:forces:R:3 energy=-269.7436512032684 pbc="T T F"
C       -4.90407279       2.72825394      10.00000000      -0.27546286      -0.17889262       0.00045891
C       -4.95509823       4.14406101      10.00000000       0.06051462       0.17842390       0.00974733
C       -3.70324291       4.80768718      10.00000000      -0.04159805       0.26050299       0.01227592
C       -3.66224620       6.22199923      10.00000000      -0.05652670       0.04312629      -0.06063750
C       -2.38584244       6.87990464      10.00000000      -1.45421054       1.41144581       0.04043186
C       -2.34260280       8.31639578      10.00000000      -0.66003023       0.30296062      -0.05799674
C       -1.12011677       9.07272175      10.00000000      -1.39479961       0.71491889       0.06780127
C       -1.18885840      10.50678026      10.00000000      -0.33864969      -0.06882020      -0.00245057
C       -2.43055663       2.68615078      10.00000000      -0.21192950       0.09981740      -0.01031278
C       -2.47816054       4.08081684      10.00000000      -0.11656859      -0.13112442      -0.06543028
C       -1.24980115       4.73157830      10.00000000      -0.65504881      -0.70085493       0.05989532
C       -1.23757445       6.11658101      10.00000000       0.42237383      -0.55604837      -0.03862997
C        0.11440283       8.45981585      10.00000000       0.35280524      -0.25975776      -0.44100540
C        1.30792642       9.16224746      10.00000000      -0.04455271       0.27012258      -0.01805425
C        1.25803020      10.55216557      10.00000000       0.31626408       0.36694958       0.01035324
C        0.03720704       2.62807678      10.00000000      -0.15566805      -0.31532919       0.02167480
C       -0.01311689       4.01783507      10.00000000       0.00315879      -0.85291752       0.03526497
C        1.17960686       4.71982639      10.00000000      -0.43760697      -0.10543288      -0.29798751
N        2.53175081       7.06378150      10.00000000       2.00581899       1.63260950      -0.65706579
C        2.54438514       8.44872938      10.00000000       1.06462670      -0.54001381      -0.16287022
C        3.77341498       9.09884503      10.00000000       0.18974378      -0.09640215       0.05160531
C        3.72607066      10.49363473      10.00000000      -0.01085333      -0.07690360      -0.00321112
C        2.48403183       2.67372211      10.00000000       0.40338006       0.05449782      -0.02820505
C        2.41500233       4.10756281      10.00000000       1.23379122      -0.65443424       0.05770314
C        3.63739856       4.86418701      10.00000000       0.27814865      -0.14334025      -0.07637189
C        3.68067784       6.30038185      10.00000000       0.72554762      -0.25697686      -0.12363220
C        4.95710118       6.95791183      10.00000000      -0.14846541       0.00529582       0.00599657
C        4.99842492       8.37232189      10.00000000      -0.00391168      -0.34483859       0.01440619
C        6.25024099       9.03652569      10.00000000       0.07977684      -0.01764619       0.00940156
C        6.19948042      10.45238139      10.00000000       0.22562772       0.14953995       0.00770949
Pt       0.64722720       6.58994552      10.00000000      -1.12233627       0.17629424       4.99425931
H       -0.50277280       6.58994552      11.80000000       1.21312210      -0.15792084      -2.13132449
H        1.79722720       6.58994552      11.80000000      -1.44071131      -0.21002394      -1.24018360
33
Lattice="9.84 0.0 0.0 4.92 8.521689973238876 0.0 0.0 0.0 20.0" Properties=species:S:1:pos:R:3:forces:R:3 energy=-272.3487210957221 pbc="T T F"
C       -4.90407279       2.72825394      10.00000000      -0.41522848      -0.17114665       0.00084254
C       -4.95509823       4.14406101      10.00000000       0.18596023      -0.10190604       0.00216549
C       -3.70324291       4.80768718      10.00000000      -0.07122698       0.41757470       0.00616257
C       -3.66224620       6.22199923      10.00000000      -0.08239010       0.35209777      -0.02019776
C       -2.38584244       6.87990464      10.00000000      -1.43359342       0.91190448       0.02335479
C       -2.34260280       8.31639578      10.00000000      -0.37625959       0.26817061      -0.02740123
C       -1.12011677       9.07272175      10.00000000      -1.48047704       0.80791103       0.04710248
C       -1.18885840      10.50678026      10.00000000      -0.38344130      -0.11526204      -0.00344515
C       -2.43055663       2.68615078      10.00000000       0.04714491      -0.01452853       0.00322093
C       -2.47816054       4.08081684      10.00000000      -0.15954694      -0.22774047       0.01279747
C       -1.24980115       4.73157830      10.00000000      -0.51985464      -1.10617541      -0.02116018
C       -1.23757445       6.11658101      10.00000000       0.43275335       0.20746525      -0.51156892
C        0.11440283       8.45981585      10.00000000       0.13170838      -0.90176021      -0.33791534
C        1.30792642       9.16224746      10.00000000       0.64537749       1.07420495       0.00741419
C        1.25803020      10.55216557      10.00000000       0.15985856       0.23528491       0.02350394
C        0.03720704       2.62807678      10.00000000      -0.16357091      -0.24444311       0.02349312
C       -0.01311689       4.01783507      10.00000000      -0.67664143      -1.07867329       0.00740704
C        1.17960686       4.71982639      10.00000000      -0.07330703       0.92472468      -0.33767395
C        2.53175081       7.06378150      10.00000000      -0.40780863      -0.22271897      -0.51197989
C        2.54438514       8.44872938      10.00000000       0.53374094       1.09870432      -0.02116155
C        3.77341498       9.09884503      10.00000000       0.14695278       0.24046671       0.01287902
C        3.72607066      10.49363473      10.00000000      -0.05105981       0.01015203       0.00320241
C        2.48403183       2.67372211      10.00000000       0.39503421       0.11361148      -0.00347209
C        2.41500233       4.10756281      10.00000000       1.46400045      -0.79408752       0.04708951
C        3.63739856       4.86418701      10.00000000       0.37872845      -0.27904937      -0.02743652
C        3.68067784       6.30038185      10.00000000       1.41098644      -0.89763389       0.02342422
C        4.95710118       6.95791183      10.00000000       0.08872537      -0.34315126      -0.02014505
C        4.99842492       8.37232189      10.00000000       0.07458460      -0.41870488       0.00615031
C        6.25024099       9.03652569      10.00000000      -0.19428618       0.09627210       0.00220537
C        6.19948042      10.45238139      10.00000000       0.40256613       0.15876121       0.00085210
Pt       0.64722720       6.58994552      10.00000000      -0.00228391      -0.00026380       2.64602266
H       -0.25277280       6.58994552      12.20000000       2.27683654      -0.05030233      -0.53031152
H        1.54722720       6.58994552      12.20000000      -2.27666970       0.05007500      -0.53017762
33
Lattice="9.84 0.0 0.0 4.92 8.521689973238876 0.0 0.0 0.0 20.0" Properties=species:S:1:pos:R:3:forces:R:3 energy=-261.7322933093563 pbc="T T F"
C       -4.90407279       2.72825394      10.00000000       0.01728629      -0.04159873      -0.00758636
C       -4.95509823       4.14406101      10.00000000      -0.01728974       0.01309261       0.00267753
C       -3.70324291       4.80768718      10.00000000       0.02510061      -0.01028516      -0.00760678
C       -3.66224620       6.22199923      10.00000000      -0.05306880       0.03830644       0.03520174
C       -2.38584244       6.87990464      10.00000000       0.08841470      -0.08680852      -0.08665172
C       -2.34260280       8.31639578      10.00000000      -0.03583875       0.01795220       0.04777329
C       -1.12011677       9.07272175      10.00000000       0.12998839      -0.03445328      -0.03605305
C       -1.18885840      10.50678026      10.00000000      -0.03055061       0.03052277       0.02082768
C       -2.43055663       2.68615078      10.00000000      -0.01403211       0.01466605      -0.00245126
C       -2.47816054       4.08081684      10.00000000      -0.03973481       0.00698001       0.00487338
C       -1.24980115       4.73157830      10.00000000       0.03951748       0.08676629      -0.00497384
N       -1.23757445       6.11658101      10.00000000      -0.67723700      -0.19489758      -0.50821900
N        0.11440283       8.45981585      10.00000000      -0.09583425       0.37080477      -0.22177239
C        1.30792642       9.16224746      10.00000000      -0.06726061      -0.04864760       0.03182736
C        1.25803020      10.55216557      10.00000000      -0.04265660       0.01012306       0.00280032
C        0.03720704       2.62807678      10.00000000       0.03885221      -0.01972218       0.00284884
C       -0.01311689       4.01783507      10.00000000       0.03842587       0.04541566       0.03186214
N        1.17960686       4.71982639      10.00000000       0.14941596      -0.34272228      -0.22184018
N        2.53175081       7.06378150      10.00000000       0.70398387       0.17753073      -0.50791137
C        2.54438514       8.44872938      10.00000000      -0.02733025      -0.09498618      -0.00511213
C        3.77341498       9.09884503      10.00000000       0.02807274       0.00433292       0.00494214
C        3.72607066      10.49363473      10.00000000       0.00893815      -0.01805553      -0.00242280
C        2.48403183       2.67372211      10.00000000       0.04148377      -0.03198418       0.02080663
C        2.41500233       4.10756281      10.00000000      -0.14300478       0.04489003      -0.03600846
C        3.63739856       4.86418701      10.00000000       0.03781683      -0.02877387       0.04773515
C        3.68067784       6.30038185      10.00000000      -0.11065779       0.10060673      -0.08661687
C        4.95710118       6.95791183      10.00000000       0.05934190      -0.02887661       0.03519702
C        4.99842492       8.37232189      10.00000000      -0.02205544       0.00959230      -0.00759972
C        6.25024099       9.03652569      10.00000000       0.00914978      -0.01899077       0.00267504
C        6.19948042      10.45238139      10.00000000      -0.03088654       0.02979076      -0.00759290
Pt       0.64722720       6.58994552      10.00000000      -0.00264410      -0.00043626       0.90753853
H       -0.25277280       6.58994552      12.20000000       2.65670824       0.04367254       0.27664903
H        1.54722720       6.58994552      12.20000000      -2.65666546      -0.04389232       0.27630832
32
Lattice="9.84 0.0 0.0 4.92 8.521689973238876 0.0 0.0 0.0 20.0" Properties=species:S:1:pos:R:3:forces:R:3 energy=-257.51202753530447 pbc="T T F"
C       -4.90407279       2.72825394      10.00000000      -0.49115294      -0.40397359      -0.00176395
C       -4.95509823       4.14406101      10.00000000       0.70395708       0.26640667       0.06521621
C       -3.70324291       4.80768718      10.00000000      -0.07352433       0.40971674      -0.01298317
C       -3.66224620       6.22199923      10.00000000       0.39135570      -0.20893877       0.05722317
C       -2.38584244       6.87990464      10.00000000      -0.18342789       0.30555721      -0.03052168
C       -2.34260280       8.31639578      10.00000000       0.08474828       0.08387434       0.00103396
C       -1.12011677       9.07272175      10.00000000       0.23722393       0.13560441      -0.01916164
C       -1.18885840      10.50678026      10.00000000      -0.26947419      -0.17396344       0.00158295
C       -2.43055663       2.68615078      10.00000000       0.20821337      -0.27466787       0.01347168
C       -2.47816054       4.08081684      10.00000000      -0.08163611       0.31469048       0.10748343
C       -1.24980115       4.73157830      10.00000000      -0.66585279       0.38119354      -0.02388643
N       -1.23757445       6.11658101      10.00000000      -0.73962436      -1.68590212      -0.96494361
N        0.11440283       8.45981585      10.00000000      -0.94663913       1.90289618      -0.25355369
C        1.30792642       9.16224746      10.00000000      -0.34774445      -1.59324294      -0.07031418
C        1.25803020      10.55216557      10.00000000       0.28164214       0.77556407      -0.06003757
C        0.03720704       2.62807678      10.00000000      -0.23344499      -0.44664880       0.02935487
C       -0.01311689       4.01783507      10.00000000      -0.20795081      -0.20101068       0.04153640
C        1.17960686       4.71982639      10.00000000      -0.40980156       0.82189503      -0.54156243
C        2.54438514       8.44872938      10.00000000      -0.98191194      -0.90912360       0.05169556
C        3.77341498       9.09884503      10.00000000      -0.73292012      -1.90811549       0.01827805
C        3.72607066      10.49363473      10.00000000      -0.12063852       0.16869082      -0.00753496
C        2.48403183       2.67372211      10.00000000       0.08224469      -0.16910325       0.00976806
C        2.41500233       4.10756281      10.00000000       0.83385930      -0.65544394       0.00275792
C        3.63739856       4.86418701      10.00000000      -0.70121921       1.58465035       0.03043314
C        3.68067784       6.30038185      10.00000000       1.57033136      -0.51502887      -0.28732520
C        4.95710118       6.95791183      10.00000000      -1.89423028      -0.07553761       0.02683193
C        4.99842492       8.37232189      10.00000000       0.78754086       0.33709318      -0.00816290
C        6.25024099       9.03652569      10.00000000      -0.29599194      -0.28017111       0.00394140
C        6.19948042      10.45238139      10.00000000       0.22287711       0.17338564       0.00112391
Pt       0.64722720       6.58994552      10.00000000       3.36347864       1.61093529      -0.46611002
H        0.22222720       6.58994552      11.80000000       1.02471540       0.13575657       1.05790684
H        1.07222720       6.58994552      11.80000000      -0.41086133       0.09534269       1.21981347
32
Lattice="9.84 0.0 0.0 4.92 8.521689973238876 0.0 0.0 0.0 20.0" Properties=species:S:1:pos:R:3:forces:R:3 energy=-258.72671466013367 pbc="T T F"
C       -4.90407279       2.72825394      10.00000000      -0.53817170      -0.41710514       0.00000120
C       -4.95509823       4.14406101      10.00000000       0.76535321       0.28912122       0.00021221
C       -3.70324291       4.80768718      10.00000000      -0.10992990       0.44255941      -0.00003691
C       -3.66224620       6.22199923      10.00000000       0.41371700      -0.25120607       0.00036825
C       -2.38584244       6.87990464      10.00000000      -0.12318397       0.53594091       0.00066345
C       -2.34260280       8.31639578      10.00000000       0.06528868       0.02368893      -0.00001492
C       -1.12011677       9.07272175      10.00000000       0.22961068       0.19314631       0.00052021
C       -1.18885840      10.50678026      10.00000000      -0.29230827      -0.19716636       0.00021847
C       -2.43055663       2.68615078      10.00000000       0.23888749      -0.31185980       0.00017817
C       -2.47816054       4.08081684      10.00000000      -0.05629647       0.39737271       0.00047185
C       -1.24980115       4.73157830      10.00000000      -0.49911806       0.28558231      -0.00042832
N       -1.23757445       6.11658101      10.00000000       0.59181970      -1.29328611      -0.00259487
N        0.11440283       8.45981585      10.00000000      -0.96155741       1.37155006      -0.00332333
C        1.30792642       9.16224746      10.00000000      -0.20175275      -1.65111140      -0.00002954
C        1.25803020      10.55216557      10.00000000       0.33635533       0.85206755       0.00012297
C        0.03720704       2.62807678      10.00000000      -0.25113824      -0.41805457       0.00020706
C       -0.01311689       4.01783507      10.00000000      -0.18048568      -0.25092531      -0.00033760
C        1.17960686       4.71982639      10.00000000      -0.36677220       1.19669364      -0.00067124
C        2.54438514       8.44872938      10.00000000      -0.94587008      -0.81482210       0.00026480
C        3.77341498       9.09884503      10.00000000      -0.79637757      -1.90486950      -0.00006546
C        3.72607066      10.49363473      10.00000000      -0.11981137       0.16013503       0.00003073
C        2.48403183       2.67372211      10.00000000       0.13324464      -0.13922261       0.00016272
C        2.41500233       4.10756281      10.00000000       0.67087241      -0.75611097      -0.00039719
C        3.63739856       4.86418701      10.00000000      -0.72081657       1.73045929       0.00005320
C        3.68067784       6.30038185      10.00000000       1.46996141      -0.63154510       0.00002568
C        4.95710118       6.95791183      10.00000000      -1.90280410      -0.01343306       0.00028013
C        4.99842492       8.37232189      10.00000000       0.81902124       0.31686275      -0.00047725
C        6.25024099       9.03652569      10.00000000      -0.30022105      -0.28085757       0.00022011
C        6.19948042      10.45238139      10.00000000       0.20098509       0.16481881      -0.00007848
Pt       0.64722720       6.58994552      10.00000000       2.42306145       1.37046358       0.01142133
H        0.64722720       6.58994552      13.20000000       0.00614446      -0.00492773      -0.57212739
H        0.64722720       6.58994552      13.94000000      -0.00230370       0.00271117       0.57152079
33
Lattice="9.84 0.0 0.0 4.92 8.521689973238876 0.0 0.0 0.0 20.0" Properties=species:S:1:pos:R:3:forces:R:3 energy=-269.0379149022943 pbc="T T F"
C       -4.90407279       2.72825394      10.00000000      -0.19318286      -0.19183928      -0.00029747
C       -4.95509823       4.14406101      10.00000000      -0.13896326       0.16206904      -0.00949263
C       -3.70324291       4.80768718      10.00000000       0.05667908       0.35654131      -0.00721162
C       -3.66224620       6.22199923      10.00000000       0.11567510      -0.09026934       0.02917401
C       -2.38584244       6.87990464      10.00000000      -0.33757478       0.14311310       0.05743291
C       -2.34260280       8.31639578      10.00000000      -0.35226739       0.15527833      -0.01524430
C       -1.12011677       9.07272175      10.00000000      -1.20619718       0.75660587       0.06147305
C       -1.18885840      10.50678026      10.00000000      -0.33063764      -0.07568308      -0.01599504
C       -2.43055663       2.68615078      10.00000000      -0.14687304       0.14556562       0.01163644
C       -2.47816054       4.08081684      10.00000000      -0.24983524       0.03770182       0.08415242
C       -1.24980115       4.73157830      10.00000000      -1.19110659       1.28910441       0.01892600
N       -1.23757445       6.11658101      10.00000000      -0.76995590      -1.67885113      -0.83468961
C        0.11440283       8.45981585      10.00000000       0.73939266       0.22382290      -0.66418428
C        1.30792642       9.16224746      10.00000000      -0.69032024       0.28308546       0.00754615
C        1.25803020      10.55216557      10.00000000       0.27818235       0.42181823       0.04026753
C        0.03720704       2.62807678      10.00000000      -0.28114061      -0.43237359       0.04035738
C       -0.01311689       4.01783507      10.00000000       0.65780934      -0.28675608       0.00758159
C        1.17960686       4.71982639      10.00000000      -0.68043430      -0.20006428      -0.66409005
N        2.53175081       7.06378150      10.00000000       0.79602616       1.66136586      -0.83483884
C        2.54438514       8.44872938      10.00000000       1.20389832      -1.29783739       0.01909170
C        3.77341498       9.09884503      10.00000000       0.23773260      -0.02591133       0.08407899
C        3.72607066      10.49363473      10.00000000       0.14275451      -0.14913639       0.01164895
C        2.48403183       2.67372211      10.00000000       0.34233314       0.07417514      -0.01605525
C        2.41500233       4.10756281      10.00000000       1.19048464      -0.74333718       0.06142296
C        3.63739856       4.86418701      10.00000000       0.35480709      -0.16627766      -0.01519681
C        3.68067784       6.30038185      10.00000000       0.31560393      -0.13001098       0.05739319
C        4.95710118       6.95791183      10.00000000      -0.10940251       0.09952996       0.02911327
C        4.99842492       8.37232189      10.00000000      -0.05329365      -0.35705802      -0.00721609
C        6.25024099       9.03652569      10.00000000       0.13016990      -0.16744819      -0.00945127
C        6.19948042      10.45238139      10.00000000       0.17943254       0.17939015      -0.00029670
Pt       0.64722720       6.58994552      10.00000000      -0.00274613      -0.00007497      -6.02278264
H        0.64722720       6.58994552      11.40000000       0.00002938       0.00000834       4.42006819
H        0.64722720       6.58994552      12.14000000       0.00002721      -0.00019043       4.03889957
33
Lattice="9.84 0.0 0.0 4.92 8.521689973238876 0.0 0.0 0.0 20.0" Properties=species:S:1:pos:R:3:forces:R:3 energy=-268.7029131445959 pbc="T T F"
C       -4.90407279       2.72825394      10.00000000      -0.12812571      -0.13302387      -0.00005690
C       -4.95509823       4.14406101      10.00000000      -0.22662462      -0.09341545       0.00017170
C       -3.70324291       4.80768718      10.00000000       0.09533408       0.19788553      -0.00011792
C       -3.66224620       6.22199923      10.00000000      -0.00197539       0.28450900       0.00011781
C       -2.38584244       6.87990464      10.00000000      -0.23045143      -0.46313017       0.00036431
C       -2.34260280       8.31639578      10.00000000       0.04776666       0.08272873      -0.00013397
C       -1.12011677       9.07272175      10.00000000       0.04267343       0.11946716       0.00030648
C       -1.18885840      10.50678026      10.00000000       0.04524975      -0.01381521       0.00007703
C       -2.43055663       2.68615078      10.00000000      -0.01406192       0.02371511       0.00005695
C       -2.47816054       4.08081684      10.00000000      -0.22160453      -0.14313209       0.00000311
C       -1.24980115       4.73157830      10.00000000      -0.57755750       1.04095947       0.00002319
N       -1.23757445       6.11658101      10.00000000      -1.30966886      -0.60734458       0.00059038
N        0.11440283       8.45981585      10.00000000       0.61465268       0.77112746       0.00108167
C        1.30792642       9.16224746      10.00000000      -0.99241748       0.50970246       0.00002564
C        1.25803020      10.55216557      10.00000000      -0.21780984       0.07619216      -0.00005270
C        0.03720704       2.62807678      10.00000000      -0.01364936      -0.08767926       0.00006355
C       -0.01311689       4.01783507      10.00000000       1.09092260      -0.06801653       0.00008084
N        1.17960686       4.71982639      10.00000000      -0.55650861      -0.07287955       0.00078747
C        2.53175081       7.06378150      10.00000000      -1.42437778       0.16832843       0.00177870
C        2.54438514       8.44872938      10.00000000       0.20997744      -0.00076457      -0.00010806
C        3.77341498       9.09884503      10.00000000       0.08748936       0.42704528      -0.00008600
C        3.72607066      10.49363473      10.00000000       0.26689759      -0.09260122       0.00004187
C        2.48403183       2.67372211      10.00000000      -0.06462228       0.07886386       0.00017961
C        2.41500233       4.10756281      10.00000000       0.32171394      -0.25086607       0.00030877
C        3.63739856       4.86418701      10.00000000       0.34167654      -0.31755826      -0.00002516
C        3.68067784       6.30038185      10.00000000       0.93898016      -0.70637823       0.00012446
C        4.95710118       6.95791183      10.00000000       0.18516264      -0.20692748       0.00006089
C        4.99842492       8.37232189      10.00000000       0.04136730      -0.15696773      -0.00012474
C        6.25024099       9.03652569      10.00000000       0.03336540      -0.11107399       0.00021366
C        6.19948042      10.45238139      10.00000000       0.13788512       0.10468278      -0.00012801
Pt       0.64722720       6.58994552      10.00000000       1.48083948      -0.36148961       0.01266438
H        0.64722720       6.58994552      14.00000000       0.00369273       0.00105589      -0.53464205
H        0.64722720       6.58994552      14.74000000      -0.00162642      -0.00059340       0.52192937
32
Lattice="9.84 0.0 0.0 4.92 8.521689973238876 0.0 0.0 0.0 20.0" Properties=species:S:1:pos:R:3:forces:R:3 energy=-261.9971283256128 pbc="T T F"
C       -4.90407279       2.72825394      10.00000000      -0.62735990      -0.42283568      -0.00005867
C       -4.95509823       4.14406101      10.00000000       0.80682786       0.37470494      -0.00004734
C       -3.70324291       4.80768718      10.00000000      -0.16840468       0.43047817       0.00013027
C       -3.66224620       6.22199923      10.00000000       0.26968016      -0.09091665       0.00005158
C       -2.38584244       6.87990464      10.00000000      -1.09174728       1.32481107       0.00007418
C       -2.34260280       8.31639578      10.00000000      -0.26188663       0.16090977       0.00010558
C       -1.12011677       9.07272175      10.00000000      -0.04284285       0.49933193       0.00007347
C       -1.18885840      10.50678026      10.00000000      -0.20180232      -0.19498662       0.00003334
C       -2.43055663       2.68615078      10.00000000      -0.01752224      -0.21959211       0.00003546
C       -2.47816054       4.08081684      10.00000000      -0.05962513       0.06469657       0.00048513
C       -1.24980115       4.73157830      10.00000000      -0.40415241      -0.45364417       0.00007590
C       -1.23757445       6.11658101      10.00000000       2.33732637      -0.68935953      -0.00149524
N        0.11440283       8.45981585      10.00000000      -0.70884569       0.95097203      -0.00014986
C        1.30792642       9.16224746      10.00000000      -0.54874494      -1.39638187       0.00035388
C        1.25803020      10.55216557      10.00000000       0.36624745       0.85324984      -0.00016183
C        0.03720704       2.62807678      10.00000000      -0.09537597      -0.47199811       0.00032128
C       -0.01311689       4.01783507      10.00000000       0.06632809      -0.72844678       0.00017979
C        1.17960686       4.71982639      10.00000000      -0.27399057       0.90773484      -0.00150244
C        2.54438514       8.44872938      10.00000000      -0.58839510      -1.24371037       0.00073972
C        3.77341498       9.09884503      10.00000000      -0.73219656      -1.64960046      -0.00004055
C        3.72607066      10.49363473      10.00000000      -0.15914211       0.22195242       0.00003381
C        2.48403183       2.67372211      10.00000000       0.15045741      -0.07561670       0.00017826
C        2.41500233       4.10756281      10.00000000       0.57209254      -0.79300351       0.00005983
C        3.63739856       4.86418701      10.00000000      -0.77170825       1.69465099      -0.00021487
C        3.68067784       6.30038185      10.00000000       1.65195620      -0.45640008       0.00078392
C        4.95710118       6.95791183      10.00000000      -1.97683878      -0.26789624      -0.00014872
C        4.99842492       8.37232189      10.00000000       0.76598157       0.08090632      -0.00011385
C        6.25024099       9.03652569      10.00000000      -0.18936566      -0.07766005      -0.00010001
C        6.19948042      10.45238139      10.00000000       0.28652334       0.21452860       0.00001046
Pt       0.64722720       6.58994552      10.00000000       1.65109125       1.45780702      -0.00072143
H        0.27722720       6.58994552      14.00000000      -0.50360662      -0.00001999       0.00225436
H        1.01722720       6.58994552      14.00000000       0.50491019      -0.00057070       0.00041335
33
Lattice="9.84 0.0 0.0 4.92 8.521689973238876 0.0 0.0 0.0 20.0" Properties=species:S:1:pos:R:3:forces:R:3 energy=-267.13313692374646 pbc="T T F"
C       -4.90407279       2.72825394      10.00000000      -0.10461807      -0.13362493      -0.00500063
C       -4.95509823       4.14406101      10.00000000      -0.23872736      -0.08398306      -0.00182892
C       -3.70324291       4.80768718      10.00000000       0.10705916       0.15982653      -0.00371719
C       -3.66224620       6.22199923      10.00000000      -0.01299021       0.28479118       0.00995588
C       -2.38584244       6.87990464      10.00000000      -0.20976029      -0.44286727      -0.02707045
C       -2.34260280       8.31639578      10.00000000       0.02903593       0.06391765       0.01543352
C       -1.12011677       9.07272175      10.00000000       0.09011428       0.11605514      -0.01220626
C       -1.18885840      10.50678026      10.00000000       0.03877795       0.00487360       0.01331426
C       -2.43055663       2.68615078      10.00000000      -0.01312801       0.02890158       0.00136343
C       -2.47816054       4.08081684      10.00000000      -0.23292731      -0.13288079       0.01276970
C       -1.24980115       4.73157830      10.00000000      -0.49802102       0.92199638       0.00653814
N       -1.23757445       6.11658101      10.00000000      -1.57829481      -0.64860613      -0.40504348
N        0.11440283       8.45981585      10.00000000       0.55010344       0.99133203      -0.34747517
C        1.30792642       9.16224746      10.00000000      -0.93698505       0.51545570       0.02298675
C        1.25803020      10.55216557      10.00000000      -0.21895440       0.07206011       0.03562301
C        0.03720704       2.62807678      10.00000000      -0.00733978      -0.08675764       0.01908645
C       -0.01311689       4.01783507      10.00000000       0.97718481      -0.03345734       0.02313330
N        1.17960686       4.71982639      10.00000000      -0.44901238      -0.30791321      -0.36381906
C        2.53175081       7.06378150      10.00000000      -1.09634147       0.22654723      -0.43507353
C        2.54438514       8.44872938      10.00000000       0.15309618       0.07839915       0.01908903
C        3.77341498       9.09884503      10.00000000       0.08300005       0.41023880       0.02052280
C        3.72607066      10.49363473      10.00000000       0.24428858      -0.07559695       0.00218636
C        2.48403183       2.67372211      10.00000000      -0.04390115       0.08169408       0.01680480
C        2.41500233       4.10756281      10.00000000       0.33439119      -0.23271174       0.00405113
C        3.63739856       4.86418701      10.00000000       0.33693333      -0.37902914       0.00709527
C        3.68067784       6.30038185      10.00000000       0.90124001      -0.68604865       0.01043553
C        4.95710118       6.95791183      10.00000000       0.20263348      -0.18963045       0.00556813
C        4.99842492       8.37232189      10.00000000       0.03798123      -0.15973608      -0.00177208
C        6.25024099       9.03652569      10.00000000       0.03120429      -0.09806429      -0.00067089
C        6.19948042      10.45238139      10.00000000       0.11977848       0.09867602      -0.00572744
Pt       0.64722720       6.58994552      10.00000000       1.42392792      -0.38181684       0.46677406
H        0.09722720       6.58994552      12.20000000       4.06504078       0.02009257       0.51632309
H        1.19722720       6.58994552      12.20000000      -4.08223287      -0.00316229       0.37044994
33
Lattice="9.84 0.0 0.0 4.92 8.521689973238876 0.0 0.0 0.0 20.0" Properties=species:S:1:pos:R:3:forces:R:3 energy=-269.64572243758704 pbc="T T F"
C       -4.90407279       2.72825394      10.00000000      -0.18187018      -0.18050720       0.00143205
C       -4.95509823       4.14406101      10.00000000      -0.10164776       0.16902360      -0.01088820
C       -3.70324291       4.80768718      10.00000000       0.02529585       0.32076270      -0.00827183
C       -3.66224620       6.22199923      10.00000000       0.13006217      -0.11219364       0.04459729
C       -2.38584244       6.87990464      10.00000000      -0.41845501       0.30692767       0.05521594
C       -2.34260280       8.31639578      10.00000000      -0.38230772       0.08123712      -0.01272757
C       -1.12011677       9.07272175      10.00000000      -1.19017473       0.73091549       0.08276833
C       -1.18885840      10.50678026      10.00000000      -0.33325686      -0.06585474      -0.02516385
C       -2.43055663       2.68615078      10.00000000      -0.12249471       0.12890975       0.01588919
C       -2.47816054       4.08081684      10.00000000      -0.19825462       0.07897897       0.11501257
C       -1.24980115       4.73157830      10.00000000      -1.10479364       1.01512204      -0.01381014
N       -1.23757445       6.11658101      10.00000000      -0.92532663      -1.72699092      -1.27497014
C        0.11440283       8.45981585      10.00000000       0.64431157       0.15330579      -0.82835417
C        1.30792642       9.16224746      10.00000000      -0.45139763       0.24236147       0.01887599
C        1.25803020      10.55216557      10.00000000       0.27179738       0.40257954       0.04798971
C        0.03720704       2.62807678      10.00000000      -0.27472799      -0.41290217       0.04809872
C       -0.01311689       4.01783507      10.00000000       0.41883099      -0.24630534       0.01894748
C        1.17960686       4.71982639      10.00000000      -0.58523811      -0.12952557      -0.82817843
N        2.53175081       7.06378150      10.00000000       0.95152678       1.70955399      -1.27534307
C        2.54438514       8.44872938      10.00000000       1.11755216      -1.02379744      -0.01359963
C        3.77341498       9.09884503      10.00000000       0.18614062      -0.06720230       0.11493673
C        3.72607066      10.49363473      10.00000000       0.11825886      -0.13250452       0.01590550
C        2.48403183       2.67372211      10.00000000       0.34494741       0.06434348      -0.02523387
C        2.41500233       4.10756281      10.00000000       1.17443223      -0.71769194       0.08271887
C        3.63739856       4.86418701      10.00000000       0.38490782      -0.09226459      -0.01265646
C        3.68067784       6.30038185      10.00000000       0.39635008      -0.29367033       0.05517971
C        4.95710118       6.95791183      10.00000000      -0.12374425       0.12150086       0.04452483
C        4.99842492       8.37232189      10.00000000      -0.02189827      -0.32127734      -0.00828451
C        6.25024099       9.03652569      10.00000000       0.09284037      -0.17438991      -0.01084520
C        6.19948042      10.45238139      10.00000000       0.16811408       0.16801798       0.00142921
Pt       0.64722720       6.58994552      10.00000000      -0.00276468      -0.00006391       3.40338588
H        0.09722720       6.58994552      11.80000000       2.53786108       0.21749146       0.09883638
H        1.19722720       6.58994552      11.80000000      -2.53770957      -0.21786725       0.09879682
32
Lattice="9.84 0.0 0.0 4.92 8.521689973238876 0.0 0.0 0.0 20.0" Properties=species:S:1:pos:R:3:forces:R:3 energy=-255.35780558779496 pbc="T T F"
C       -4.90407279       2.72825394      10.00000000      -0.46977401      -0.40319556      -0.00601409
C       -4.95509823       4.14406101      10.00000000       0.67560449       0.28269002       0.11794124
C       -3.70324291       4.80768718      10.00000000      -0.06968034       0.35567276      -0.02006653
C       -3.66224620       6.22199923      10.00000000       0.41524166      -0.19407694       0.09030053
C       -2.38584244       6.87990464      10.00000000      -0.31321445       0.33179446      -0.10361196
C       -2.34260280       8.31639578      10.00000000       0.10314088       0.05593201      -0.01150483
C       -1.12011677       9.07272175      10.00000000       0.20675326       0.13368594      -0.00071803
C       -1.18885840      10.50678026      10.00000000      -0.24102675      -0.17119076       0.00395540
C       -2.43055663       2.68615078      10.00000000       0.18210026      -0.25192128       0.02521995
C       -2.47816054       4.08081684      10.00000000      -0.08241703       0.32135788       0.16400127
C       -1.24980115       4.73157830      10.00000000      -0.67791450       0.27292809      -0.13516842
N       -1.23757445       6.11658101      10.00000000      -1.40677861      -1.90032050      -1.64163104
N        0.11440283       8.45981585      10.00000000      -0.84547840       2.01475492      -0.28750722
C        1.30792642       9.16224746      10.00000000      -0.42817472      -1.57076925      -0.07914332
C        1.25803020      10.55216557      10.00000000       0.27843089       0.74506191      -0.09960596
C        0.03720704       2.62807678      10.00000000      -0.21005901      -0.46079974       0.02740622
C       -0.01311689       4.01783507      10.00000000      -0.28746786      -0.11505468       0.03179697
C        1.17960686       4.71982639      10.00000000      -0.44601765       0.80286287      -0.45730981
C        2.54438514       8.44872938      10.00000000      -0.95725913      -0.85744518      -0.01275892
C        3.77341498       9.09884503      10.00000000      -0.67733778      -1.94900594       0.06090999
C        3.72607066      10.49363473      10.00000000      -0.14983613       0.17927433       0.00105673
C        2.48403183       2.67372211      10.00000000       0.06103340      -0.14234807      -0.01276405
C        2.41500233       4.10756281      10.00000000       0.95716674      -0.62034574      -0.06795624
C        3.63739856       4.86418701      10.00000000      -0.73768626       1.46866858       0.03954747
C        3.68067784       6.30038185      10.00000000       1.72752900      -0.46564625      -0.49199902
C        4.95710118       6.95791183      10.00000000      -1.88096883      -0.07391813       0.07599649
C        4.99842492       8.37232189      10.00000000       0.78060270       0.32967236      -0.02556730
C        6.25024099       9.03652569      10.00000000      -0.30214004      -0.25712115       0.00730237
C        6.19948042      10.45238139      10.00000000       0.22387855       0.16668956       0.00496347
Pt       0.64722720       6.58994552      10.00000000       3.39981461       1.58762767       4.53926927
H       -0.25277280       6.58994552      11.80000000       2.53678671       0.19675153      -0.90198969
H        1.54722720       6.58994552      11.80000000      -1.36515635       0.19316808      -0.89319951
32
Lattice="9.84 0.0 0.0 4.92 8.521689973238876 0.0 0.0 0.0 20.0" Properties=species:S:1:pos:R:3:forces:R:3 energy=-254.60332500951478 pbc="T T F"
C       -4.90407279       2.72825394      10.00000000      -0.27664051      -0.19966091      -0.00385186
C       -4.95509823       4.14406101      10.00000000       0.43313016      -0.07626697      -0.02463697
C       -3.70324291       4.80768718      10.00000000      -0.05161086       0.26899906       0.00169510
C       -3.66224620       6.22199923      10.00000000       0.48528115       0.03290841      -0.00852833
C       -2.38584244       6.87990464      10.00000000      -0.13238280       0.32256501      -0.01791616
C       -2.34260280       8.31639578      10.00000000       0.06397086       0.08297458       0.01427440
C       -1.12011677       9.07272175      10.00000000       0.00192610      -0.13411575      -0.01915241
C       -1.18885840      10.50678026      10.00000000      -0.07107820      -0.06423820       0.00012680
C       -2.43055663       2.68615078      10.00000000       0.14025888      -0.22482675      -0.00261172
C       -2.47816054       4.08081684      10.00000000      -0.07511692       0.16015591       0.00417938
C       -1.24980115       4.73157830      10.00000000      -0.09102111       0.39777761      -0.00974807
N       -1.23757445       6.11658101      10.00000000       0.09536509      -0.99480086      -0.18181601
N        0.11440283       8.45981585      10.00000000      -0.47751230       0.67578100      -0.16801780
C        1.30792642       9.16224746      10.00000000       0.31676549      -1.13495293       0.02457046
C        1.25803020      10.55216557      10.00000000       0.02360844       0.60101843       0.03320675
C        0.03720704       2.62807678      10.00000000      -0.06513882      -0.15932394       0.01405018
C       -0.01311689       4.01783507      10.00000000       0.64310288      -0.05019138       0.01548577
N        1.17960686       4.71982639      10.00000000       0.05062979      -0.34767034      -0.25371381
C        2.54438514       8.44872938      10.00000000      -1.82196993      -0.87993987      -0.09591881
C        3.77341498       9.09884503      10.00000000      -0.96645892      -1.65750495      -0.00293659
C        3.72607066      10.49363473      10.00000000      -0.08069293       0.23168502       0.00086268
C        2.48403183       2.67372211      10.00000000      -0.08023900       0.00081573       0.02625211
C        2.41500233       4.10756281      10.00000000      -0.11357162      -0.52733328       0.03844547
C        3.63739856       4.86418701      10.00000000      -0.52151195       1.52860276      -0.04021928
C        3.68067784       6.30038185      10.00000000       1.38964496      -0.61551859       0.08610159
C        4.95710118       6.95791183      10.00000000      -1.62555617      -0.39281504      -0.02389722
C        4.99842492       8.37232189      10.00000000       0.80982598       0.23492951       0.00007690
C        6.25024099       9.03652569      10.00000000      -0.29671307      -0.31118362      -0.00479221
C        6.19948042      10.45238139      10.00000000       0.15724247       0.13774263      -0.00788432
Pt       0.64722720       6.58994552      10.00000000       2.01657041       3.05974958      -1.45986660
H        0.64722720       6.58994552      11.80000000       0.05849566       0.01310950      -0.12711063
H        0.64722720       6.58994552      12.54000000       0.06359916       0.02254482       2.17711130
33
Lattice="9.84 0.0 0.0 4.92 8.521689973238876 0.0 0.0 0.0 20.0" Properties=species:S:1:pos:R:3:forces:R:3 energy=-265.94145333324184 pbc="T T F"
C       -4.90407279       2.72825394      10.00000000      -0.02752116      -0.12776046      -0.00762965
C       -4.95509823       4.14406101      10.00000000      -0.25794015      -0.06070560      -0.00288145
C       -3.70324291       4.80768718      10.00000000       0.14140631       0.03717322      -0.00626507
C       -3.66224620       6.22199923      10.00000000      -0.02423113       0.27053339       0.02295155
C       -2.38584244       6.87990464      10.00000000      -0.17333841      -0.26423277      -0.06296228
C       -2.34260280       8.31639578      10.00000000      -0.00971857      -0.00536003       0.02614028
C       -1.12011677       9.07272175      10.00000000       0.06640146       0.03388515      -0.01297275
C       -1.18885840      10.50678026      10.00000000       0.05775697       0.05418418       0.02600186
C       -2.43055663       2.68615078      10.00000000       0.01950310       0.02539410       0.00465063
C       -2.47816054       4.08081684      10.00000000      -0.24738001      -0.07110216       0.02583097
C       -1.24980115       4.73157830      10.00000000      -0.16563202       0.43078764      -0.02024069
N       -1.23757445       6.11658101      10.00000000      -2.08327314      -0.62294261      -1.07057628
N        0.11440283       8.45981585      10.00000000       0.37429027       1.27756546      -0.70817137
C        1.30792642       9.16224746      10.00000000      -0.58799538       0.52010903       0.03265536
C        1.25803020      10.55216557      10.00000000      -0.24206317       0.03155609       0.06584355
C        0.03720704       2.62807678      10.00000000       0.02845580      -0.05157096       0.03659447
C       -0.01311689       4.01783507      10.00000000       0.43405767       0.06576702       0.03689452
N        1.17960686       4.71982639      10.00000000      -0.19962024      -0.60947595      -0.72814352
C        2.53175081       7.06378150      10.00000000      -0.34620233       0.31278853      -0.92315192
C        2.54438514       8.44872938      10.00000000      -0.13145521       0.35045400       0.00906648
C        3.77341498       9.09884503      10.00000000       0.07724564       0.34211969       0.03258407
C        3.72607066      10.49363473      10.00000000       0.15262497      -0.01864011       0.00706230
C        2.48403183       2.67372211      10.00000000      -0.02854469       0.10034497       0.03440524
C        2.41500233       4.10756281      10.00000000       0.53307207      -0.12240471       0.01437045
C        3.63739856       4.86418701      10.00000000       0.29424629      -0.55976318       0.00266699
C        3.68067784       6.30038185      10.00000000       0.73194443      -0.74656324       0.03024088
C        4.95710118       6.95791183      10.00000000       0.24204379      -0.10529299       0.01072193
C        4.99842492       8.37232189      10.00000000       0.02334492      -0.16485897      -0.00057490
C        6.25024099       9.03652569      10.00000000       0.01537232      -0.04427838      -0.00127525
C        6.19948042      10.45238139      10.00000000       0.05844631       0.05834753      -0.01040350
Pt       0.64722720       6.58994552      10.00000000       1.21790116      -0.40901197       3.33193226
H       -0.05277280       6.58994552      11.80000000       2.49206867       0.06556465       0.13074464
H        1.34722720       6.58994552      11.80000000      -2.42879186       0.00772024      -0.36999305
33
Lattice="9.84 0.0 0.0 4.92 8.521689973238876 0.0 0.0 0.0 20.0" Properties=species:S:1:pos:R:3:forces:R:3 energy=-274.8151574688225 pbc="T T F"
C       -4.90407279       2.72825394      10.00000000      -0.37925910      -0.17106436      -0.00092316
C       -4.95509823       4.14406101      10.00000000       0.14922765      -0.08764099      -0.00128654
C       -3.70324291       4.80768718      10.00000000      -0.04772212       0.39457309      -0.00044486
C       -3.66224620       6.22199923      10.00000000      -0.12112517       0.36367795      -0.00196814
C       -2.38584244       6.87990464      10.00000000      -1.34115364       0.81369036       0.07113320
C       -2.34260280       8.31639578      10.00000000      -0.43514776       0.28998337      -0.01826188
C       -1.12011677       9.07272175      10.00000000      -1.41455072       0.75574094       0.06367715
C       -1.18885840      10.50678026      10.00000000      -0.35811422      -0.08197686      -0.00033799
C       -2.43055663       2.68615078      10.00000000      -0.00513870       0.01248902      -0.00091299
C       -2.47816054       4.08081684      10.00000000      -0.16458186      -0.27538708       0.01870724
C       -1.24980115       4.73157830      10.00000000      -0.67999548      -0.94033335       0.02526000
C       -1.23757445       6.11658101      10.00000000       0.28164308       0.07859070      -0.68030752
C        0.11440283       8.45981585      10.00000000       0.12973298      -0.47332245      -0.60611865
C        1.30792642       9.16224746      10.00000000       0.47714417       1.09380384       0.02234161
C        1.25803020      10.55216557      10.00000000       0.14653277       0.24741760       0.03877115
C        0.03720704       2.62807678      10.00000000      -0.15014575      -0.25681034       0.03868499
C       -0.01311689       4.01783507      10.00000000      -0.50840429      -1.09794503       0.02237970
C        1.17960686       4.71982639      10.00000000      -0.07170475       0.49646578      -0.60521755
C        2.53175081       7.06378150      10.00000000      -0.25562535      -0.09378300      -0.68127261
C        2.54438514       8.44872938      10.00000000       0.69388558       0.93267947       0.02536356
C        3.77341498       9.09884503      10.00000000       0.15206508       0.28806360       0.01896225
C        3.72607066      10.49363473      10.00000000       0.00129355      -0.01678926      -0.00091363
C        2.48403183       2.67372211      10.00000000       0.36970111       0.08040748      -0.00040014
C        2.41500233       4.10756281      10.00000000       1.39844355      -0.74198364       0.06355231
C        3.63739856       4.86418701      10.00000000       0.43741149      -0.30086090      -0.01823674
C        3.68067784       6.30038185      10.00000000       1.31866182      -0.79922194       0.07111028
C        4.95710118       6.95791183      10.00000000       0.12745620      -0.35473114      -0.00195082
C        4.99842492       8.37232189      10.00000000       0.05105215      -0.39563721      -0.00045185
C        6.25024099       9.03652569      10.00000000      -0.15745970       0.08196900      -0.00125698
C        6.19948042      10.45238139      10.00000000       0.36638215       0.15864478      -0.00091840
Pt       0.64722720       6.58994552      10.00000000      -0.00295286      -0.00021320       0.41753094
H        0.22222720       6.58994552      11.80000000       0.39608171      -0.01943554       0.85677674
H        1.07222720       6.58994552      11.80000000      -0.39619217       0.01879267       0.85666505
32
Lattice="9.84 0.0 0.0 4.92 8.521689973238876 0.0 0.0 0.0 20.0" Properties=species:S:1:pos:R:3:forces:R:3 energy=-250.69029866096008 pbc="T T F"
C       -4.90407279       2.72825394      10.00000000      -0.34717108      -0.25952268       0.00147883
C       -4.95509823       4.14406101      10.00000000       0.44761490      -0.01925723       0.02655461
C       -3.70324291       4.80768718      10.00000000      -0.06004179       0.35841125       0.00567126
C       -3.66224620       6.22199923      10.00000000       0.44996501      -0.11814763       0.04979470
C       -2.38584244       6.87990464      10.00000000      -0.18468262       0.31028125      -0.05057510
C       -2.34260280       8.31639578      10.00000000       0.10646957       0.07777633       0.00415691
C       -1.12011677       9.07272175      10.00000000       0.10954865      -0.20200305      -0.00271401
C       -1.18885840      10.50678026      10.00000000      -0.04640562      -0.03197959       0.00283381
C       -2.43055663       2.68615078      10.00000000       0.15096865      -0.21062605       0.02163733
C       -2.47816054       4.08081684      10.00000000      -0.02906736       0.15600547       0.08979629
C       -1.24980115       4.73157830      10.00000000      -0.25832248       0.74339342      -0.09259600
N       -1.23757445       6.11658101      10.00000000      -0.09742905      -1.33644368      -0.90414669
N        0.11440283       8.45981585      10.00000000      -0.35834647       0.80035110      -0.19481024
C        1.30792642       9.16224746      10.00000000       0.03040971      -1.35247681       0.00324933
C        1.25803020      10.55216557      10.00000000       0.12875830       0.59179697       0.00593105
C        0.03720704       2.62807678      10.00000000      -0.02605461      -0.23421485       0.02456164
C       -0.01311689       4.01783507      10.00000000       0.82439027      -0.00876061       0.03597936
N        1.17960686       4.71982639      10.00000000      -0.00105625      -0.28522014      -0.35508986
C        2.54438514       8.44872938      10.00000000      -1.37950627      -0.80863017      -0.18841248
C        3.77341498       9.09884503      10.00000000      -0.91308743      -1.71495005       0.05500506
C        3.72607066      10.49363473      10.00000000      -0.11917475       0.23453376      -0.00077769
C        2.48403183       2.67372211      10.00000000      -0.13178780      -0.13308844       0.03620685
C        2.41500233       4.10756281      10.00000000      -0.32905289      -0.40664647      -0.03077016
C        3.63739856       4.86418701      10.00000000      -0.60126681       1.61318245      -0.07268747
C        3.68067784       6.30038185      10.00000000       1.30298706      -0.45097101      -0.12908088
C        4.95710118       6.95791183      10.00000000      -1.53178497      -0.28544977       0.05276381
C        4.99842492       8.37232189      10.00000000       0.71489378       0.25454526      -0.03477429
C        6.25024099       9.03652569      10.00000000      -0.24942267      -0.32133391      -0.00347562
C        6.19948042      10.45238139      10.00000000       0.16462218       0.19251759       0.00581891
Pt       0.64722720       6.58994552      10.00000000       2.04514947       2.61694946       2.36629558
H       -0.50277280       6.58994552      12.20000000       1.01581970       0.08763232      -0.09201940
H        1.79722720       6.58994552      12.20000000      -0.82126699       0.14184925      -0.69147574
33
Lattice="9.84 0.0 0.0 4.92 8.521689973238876 0.0 0.0 0.0 20.0" Properties=species:S:1:pos:R:3:forces:R:3 energy=-263.188968700334 pbc="T T F"
C       -4.90407279       2.72825394      10.00000000       0.04860513      -0.05580292      -0.00451568
C       -4.95509823       4.14406101      10.00000000      -0.04177504       0.02344306       0.00182554
C       -3.70324291       4.80768718      10.00000000       0.06083237      -0.03064380      -0.00453737
C       -3.66224620       6.22199923      10.00000000      -0.08850727       0.05606230       0.03145270
C       -2.38584244       6.87990464      10.00000000       0.16455919      -0.13078757      -0.04613996
C       -2.34260280       8.31639578      10.00000000      -0.07580038       0.05745156       0.01368883
C       -1.12011677       9.07272175      10.00000000       0.17303739      -0.08982170      -0.04625405
C       -1.18885840      10.50678026      10.00000000      -0.05376524       0.05774615       0.03159384
C       -2.43055663       2.68615078      10.00000000       0.00447042       0.00467818      -0.00120954
C       -2.47816054       4.08081684      10.00000000      -0.06301262       0.00416982       0.00093821
C       -1.24980115       4.73157830      10.00000000       0.09139906       0.05449643       0.02061173
N       -1.23757445       6.11658101      10.00000000      -0.78714656      -0.09445625      -0.30576449
N        0.11440283       8.45981585      10.00000000      -0.28827018       0.70528033      -0.30565373
C        1.30792642       9.16224746      10.00000000       0.00427800      -0.06172504       0.02049363
C        1.25803020      10.55216557      10.00000000      -0.06179623       0.02286972       0.00090524
C        0.03720704       2.62807678      10.00000000       0.05803234      -0.03241749       0.00095804
C       -0.01311689       4.01783507      10.00000000      -0.03291616       0.05853418       0.02048953
N        1.17960686       4.71982639      10.00000000       0.34171363      -0.67726726      -0.30579401
N        2.53175081       7.06378150      10.00000000       0.81405794       0.07703727      -0.30573698
C        2.54438514       8.44872938      10.00000000      -0.07924796      -0.06275313       0.02059541
C        3.77341498       9.09884503      10.00000000       0.05132158       0.00709023       0.00099027
C        3.72607066      10.49363473      10.00000000      -0.00963842      -0.00802705      -0.00118642
C        2.48403183       2.67372211      10.00000000       0.06465748      -0.05919075       0.03159479
C        2.41500233       4.10756281      10.00000000      -0.18596809       0.10006043      -0.04622479
C        3.63739856       4.86418701      10.00000000       0.07774112      -0.06821475       0.01370413
C        3.68067784       6.30038185      10.00000000      -0.18682048       0.14461321      -0.04616607
C        4.95710118       6.95791183      10.00000000       0.09476407      -0.04660853       0.03147741
C        4.99842492       8.37232189      10.00000000      -0.05781986       0.02987564      -0.00451768
C        6.25024099       9.03652569      10.00000000       0.03371934      -0.02941565       0.00181265
C        6.19948042      10.45238139      10.00000000      -0.06217085       0.04409622      -0.00451274
Pt       0.64722720       6.58994552      10.00000000      -0.00251393      -0.00038855      -9.15583948
H        0.64722720       6.58994552      11.40000000       0.00002560      -0.00007986       5.95413976
H        0.64722720       6.58994552      12.14000000       0.00002602      -0.00005171       4.37427150
31
Lattice="9.84 0.0 0.0 4.92 8.521689973238876 0.0 0.0 0.0 20.0" Properties=species:S:1:pos:R:3:forces:R:3 energy=-265.50914983065996 pbc="T T F"
C       -4.88917137       2.72410601      10.01943066      -1.34221244      -0.25961221      -0.85627095
C       -4.90940733       4.13703641       9.99297589      -1.47178668       1.65444659      -0.39898605
C       -3.65586653       4.83071022       9.98591577      -1.71562973      -2.46852675       0.04656740
C       -3.64596940       6.20809670       9.98602811      -0.74955823       0.36192839      -0.16616440
C       -2.37858357       6.82250623       9.94825247      -3.86401388       5.45293267       0.42005621
C       -2.35947143       8.28601085      10.00942742      -0.58396308      -0.06097036      -0.03909583
C       -1.14735749       9.03035264      10.04396946      -0.08273237       1.81129615      -1.10773992
C       -1.19563169      10.50880611       9.95725755      -0.06572625      -0.72334899       1.16064475
C       -2.44688811       2.68947846       9.96547019       0.09039803      -0.06945895       0.42157045
C       -2.46688960       4.06279768       9.99124919      -0.04075849       2.02130710      -0.03648176
C       -1.26785235       4.78714665       9.99959508       0.93255759      -4.55777223      -0.06978292
C       -1.26930578       6.14125736       9.96337469       5.29334772      -1.50506784       0.07967205
C        0.12066874       8.40102575       9.96015442      -0.07180676       2.85678386       0.74701876
C        1.31383226       9.18440146      10.00514105      -1.56318730      -1.84306555      -0.27142100
C        1.25456075      10.54313246       9.95564434       0.21681499       1.14695004       0.55487990
C        0.01561171       2.61425762      10.03171367       0.83565417      -1.65728392      -0.01966518
C       -0.00280834       3.96494387      10.00972252      -1.46818868       3.23628399       0.15824038
C        1.16805439       4.69951873      10.01835029      -0.89657091       1.41890568       0.12233615
N        2.56268080       7.09171990       9.97482347      -0.17898487       0.19930778       0.40295656
C        2.53510877       8.45866728      10.02926635       1.90493044      -1.01591967      -0.72742629
C        3.75903975       9.09327526       9.96680995       0.86207850       1.98659884       0.83889625
C        3.69018446      10.51801050      10.04068720       0.88973427      -2.31926861      -0.80383638
C        2.48187153       2.70382810      10.01084908       0.48444516      -1.73071845      -0.06072671
C        2.39564874       4.11840468      10.04614110       3.05397633       0.01199473      -0.91729051
C        3.63632378       4.91112632       9.92140765       0.59912787      -3.82765036       1.31841040
C        3.70533492       6.30299326       9.99102978      -0.80455752       1.00348550      -0.42198885
C        4.95985400       6.89828476       9.99340984       1.39565963       4.31018908      -0.03943680
C        5.00913830       8.41665871       9.98445189      -2.47036996      -4.77023173       0.05438417
C        6.22598618       9.02147298      10.02746206       2.48738132       1.12428364      -0.27886473
C        6.20934295      10.43648858      10.01539802      -0.43484117       1.14266739       0.28703322
Pt       0.65013953       6.61900487       9.97893841      -1.24246213      -2.92843997      -0.31699671
31
Lattice="9.84 0.0 0.0 4.92 8.521689973238876 0.0 0.0 0.0 20.0" Properties=species:S:1:pos:R:3:forces:R:3 energy=-262.82801158574847 pbc="T T F"
C       -4.88917137       2.72410601      10.01943066      -1.29116907      -0.37768922      -0.83506796
C       -4.90940733       4.13703641       9.99297589      -1.56163968       1.88409953      -0.37742661
C       -3.65586653       4.83071022       9.98591577      -1.73924385      -2.51364275       0.04759576
C       -3.64596940       6.20809670       9.98602811      -0.85146619       0.38344412      -0.16483028
C       -2.37858357       6.82250623       9.94825247      -3.71831780       5.43409785       0.42647389
C       -2.35947143       8.28601085      10.00942742      -0.62508563      -0.55531573      -0.03166507
C       -1.14735749       9.03035264      10.04396946       1.32985472       1.53294853      -1.12565440
C       -1.19563169      10.50880611       9.95725755       0.27689791      -0.62031655       1.12091010
C       -2.44688811       2.68947846       9.96547019      -0.02369618      -0.10056702       0.42061502
C       -2.46688960       4.06279768       9.99124919      -0.08731795       1.96606755      -0.06089935
C       -1.26785235       4.78714665       9.99959508       0.72183792      -3.86789603      -0.08550381
C       -1.26930578       6.14125736       9.96337469       5.04377185      -2.15506976       0.08008170
N        0.12066874       8.40102575       9.96015442       0.04797733       5.10350204       0.73331223
C        1.31383226       9.18440146      10.00514105      -3.29526854      -2.24717663      -0.29163573
C        1.25456075      10.54313246       9.95564434      -0.11418944       1.14280999       0.54697250
C        0.01561171       2.61425762      10.03171367       0.92010366      -1.77050257       0.00357147
C       -0.00280834       3.96494387      10.00972252      -0.80031985       3.48301392       0.16175333
C        1.16805439       4.69951873      10.01835029      -1.42486273       1.44003445       0.05130846
N        2.56268080       7.09171990       9.97482347      -0.16557602       0.61389026       0.41317011
C        2.53510877       8.45866728      10.02926635       1.85775131      -2.01698854      -0.68039889
C        3.75903975       9.09327526       9.96680995       0.81468400       2.22841886       0.80623580
C        3.69018446      10.51801050      10.04068720       1.17725176      -2.46768259      -0.78820937
C        2.48187153       2.70382810      10.01084908       0.26956444      -1.89705001      -0.05887471
C        2.39564874       4.11840468      10.04614110       2.75179698       0.32536220      -0.91931841
C        3.63632378       4.91112632       9.92140765       0.79520012      -3.71918800       1.28156828
C        3.70533492       6.30299326       9.99102978      -0.78036122       0.78400368      -0.42914865
C        4.95985400       6.89828476       9.99340984       1.45874848       4.32681689      -0.03984635
C        5.00913830       8.41665871       9.98445189      -2.48515229      -4.75851396       0.04822326
C        6.22598618       9.02147298      10.02746206       2.71417271       1.18033381      -0.27380535
C        6.20934295      10.43648858      10.01539802      -0.58085033       1.11714962       0.27583067
Pt       0.65013953       6.61900487       9.97893841      -0.63613379      -3.87497842      -0.09851448
33
Lattice="9.84 0.0 0.0 4.92 8.521689973238876 0.0 0.0 0.0 20.0" Properties=species:S:1:pos:R:3:forces:R:3 energy=-273.58853121766856 pbc="T T F"
C       -4.90407279       2.72825394      10.00000000      -0.38601130      -0.17688903       0.00012002
C       -4.95509823       4.14406101      10.00000000       0.16708053      -0.09723426      -0.00213300
C       -3.70324291       4.80768718      10.00000000      -0.05212695       0.40723364       0.00024646
C       -3.66224620       6.22199923      10.00000000      -0.11960320       0.38591068       0.00219747
C       -2.38584244       6.87990464      10.00000000      -1.33451315       0.80392147       0.05552235
C       -2.34260280       8.31639578      10.00000000      -0.42860390       0.25928656      -0.01581675
C       -1.12011677       9.07272175      10.00000000      -1.38646913       0.74317736       0.05548952
C       -1.18885840      10.50678026      10.00000000      -0.35335412      -0.08070698       0.00217595
C       -2.43055663       2.68615078      10.00000000       0.01440542      -0.00174217       0.00337117
C       -2.47816054       4.08081684      10.00000000      -0.16813013      -0.27818168       0.03313441
C       -1.24980115       4.73157830      10.00000000      -0.64601620      -0.94756738       0.01259994
C       -1.23757445       6.11658101      10.00000000       0.38361134       0.19806114      -0.52351261
C        0.11440283       8.45981585      10.00000000       0.04574146      -0.46101507      -0.52286365
C        1.30792642       9.16224746      10.00000000       0.50455574       1.07750358       0.01260540
C        1.25803020      10.55216557      10.00000000       0.13017629       0.25585969       0.03341323
C        0.03720704       2.62807678      10.00000000      -0.13381162      -0.26519779       0.03335948
C       -0.01311689       4.01783507      10.00000000      -0.53558226      -1.08163133       0.01263355
C        1.17960686       4.71982639      10.00000000       0.01213325       0.48386933      -0.52210058
C        2.53175081       7.06378150      10.00000000      -0.35789624      -0.21337183      -0.52428058
C        2.54438514       8.44872938      10.00000000       0.65999198       0.94008067       0.01268065
C        3.77341498       9.09884503      10.00000000       0.15554444       0.29089392       0.03332758
C        3.72607066      10.49363473      10.00000000      -0.01820626      -0.00257103       0.00337136
C        2.48403183       2.67372211      10.00000000       0.36494277       0.07919706       0.00210519
C        2.41500233       4.10756281      10.00000000       1.37038050      -0.72949129       0.05539280
C        3.63739856       4.86418701      10.00000000       0.43081038      -0.27016001      -0.01578849
C        3.68067784       6.30038185      10.00000000       1.31212151      -0.78955935       0.05548067
C        4.95710118       6.95791183      10.00000000       0.12592942      -0.37697031       0.00219733
C        4.99842492       8.37232189      10.00000000       0.05546431      -0.40835345       0.00024783
C        6.25024099       9.03652569      10.00000000      -0.17527824       0.09158340      -0.00210858
C        6.19948042      10.45238139      10.00000000       0.37316622       0.16447807       0.00012582
Pt       0.64722720       6.58994552      10.00000000      -0.00291402      -0.00014275      -7.24042611
H        0.64722720       6.58994552      11.40000000      -0.00001887      -0.00010088       4.92568804
H        0.64722720       6.58994552      12.14000000      -0.00007052      -0.00036734       4.00777552
32
Lattice="9.84 0.0 0.0 4.92 8.521689973238876 0.0 0.0 0.0 20.0" Properties=species:S:1:pos:R:3:forces:R:3 energy=-263.41610533064807 pbc="T T F"
C       -4.90407279       2.72825394      10.00000000      -0.62347799      -0.40795052       0.01043862
C       -4.95509823       4.14406101      10.00000000       0.91091053       0.30811223       0.02562180
C       -3.70324291       4.80768718      10.00000000      -0.17894303       0.45364611      -0.00508497
C       -3.66224620       6.22199923      10.00000000       0.30001213      -0.14481871       0.02922746
C       -2.38584244       6.87990464      10.00000000      -1.25329411       1.32111997       0.09888089
C       -2.34260280       8.31639578      10.00000000      -0.46140274       0.26926669      -0.02553405
C       -1.12011677       9.07272175      10.00000000      -1.50230544       0.74665300       0.06570514
C       -1.18885840      10.50678026      10.00000000      -0.45042759      -0.09535220      -0.00273020
C       -2.43055663       2.68615078      10.00000000      -0.06476297      -0.15297497       0.00157479
C       -2.47816054       4.08081684      10.00000000      -0.05002702       0.11184787       0.06539864
C       -1.24980115       4.73157830      10.00000000      -0.42555526      -0.64731669       0.07256769
C       -1.23757445       6.11658101      10.00000000       1.75959369      -0.44692247      -0.93644686
C        0.11440283       8.45981585      10.00000000      -0.63770367      -0.96564588      -0.63207990
C        1.30792642       9.16224746      10.00000000       0.79075471      -0.90520559       0.01407613
C        1.25803020      10.55216557      10.00000000       0.67813032       1.06342018      -0.03070349
C        0.03720704       2.62807678      10.00000000      -0.06936559      -0.53848734       0.11437574
C       -0.01311689       4.01783507      10.00000000       0.01318146      -0.70787442       0.04320117
C        1.17960686       4.71982639      10.00000000       0.41446097      -0.13921457      -0.73383746
C        2.54438514       8.44872938      10.00000000      -0.18058181      -0.68491707       0.00622838
C        3.77341498       9.09884503      10.00000000      -0.73553245      -1.77783888      -0.00128989
C        3.72607066      10.49363473      10.00000000      -0.35394562       0.41370845       0.01084463
C        2.48403183       2.67372211      10.00000000       0.26673446      -0.02491111      -0.00189658
C        2.41500233       4.10756281      10.00000000       0.43135111      -0.95566809       0.01736181
C        3.63739856       4.86418701      10.00000000      -0.82127464       1.64203675      -0.01386793
C        3.68067784       6.30038185      10.00000000       1.63978991      -0.55927734      -0.05717831
C        4.95710118       6.95791183      10.00000000      -1.93941573      -0.28616989      -0.00143412
C        4.99842492       8.37232189      10.00000000       0.77400117      -0.13217283      -0.01080881
C        6.25024099       9.03652569      10.00000000      -0.31943531      -0.05895973       0.00622578
C        6.19948042      10.45238139      10.00000000       0.39938175       0.25548227       0.00091043
Pt       0.64722720       6.58994552      10.00000000       1.15247100       2.98530867      -0.71214512
H        0.27722720       6.58994552      11.80000000      -1.80124549       0.08242010       1.15950570
H        1.01722720       6.58994552      11.80000000       2.34776502      -0.02263538       1.42131215
32
Lattice="9.84 0.0 0.0 4.92 8.521689973238876 0.0 0.0 0.0 20.0" Properties=species:S:1:pos:R:3:forces:R:3 energy=-259.3390129095954 pbc="T T F"
C       -4.90407279       2.72825394      10.00000000      -0.62341876      -0.42744704      -0.00152895
C       -4.95509823       4.14406101      10.00000000       0.81159769       0.37885435       0.02200438
C       -3.70324291       4.80768718      10.00000000      -0.17089776       0.40873080      -0.00177359
C       -3.66224620       6.22199923      10.00000000       0.26893288      -0.09558166       0.00713319
C       -2.38584244       6.87990464      10.00000000      -1.12871298       1.33063004       0.02547505
C       -2.34260280       8.31639578      10.00000000      -0.26286711       0.16711425      -0.01115017
C       -1.12011677       9.07272175      10.00000000      -0.05230397       0.46882006       0.00384280
C       -1.18885840      10.50678026      10.00000000      -0.18735316      -0.17597121       0.00627804
C       -2.43055663       2.68615078      10.00000000      -0.01655545      -0.22511235       0.00857967
C       -2.47816054       4.08081684      10.00000000      -0.04137819       0.06394312       0.04807987
C       -1.24980115       4.73157830      10.00000000      -0.38946686      -0.58150197      -0.01000261
C       -1.23757445       6.11658101      10.00000000       1.89326689      -0.84135426      -0.49365432
N        0.11440283       8.45981585      10.00000000      -0.70221648       1.20357348      -0.29800326
C        1.30792642       9.16224746      10.00000000      -0.59383291      -1.38457319      -0.01698203
C        1.25803020      10.55216557      10.00000000       0.36947080       0.82393272      -0.01265496
C        0.03720704       2.62807678      10.00000000      -0.08343009      -0.47071012       0.06417006
C       -0.01311689       4.01783507      10.00000000      -0.02608456      -0.71617088       0.02171750
C        1.17960686       4.71982639      10.00000000      -0.31051166       0.73023685      -0.43642898
C        2.54438514       8.44872938      10.00000000      -0.59325823      -1.14140361       0.00665014
C        3.77341498       9.09884503      10.00000000      -0.73243830      -1.69472012       0.00869802
C        3.72607066      10.49363473      10.00000000      -0.17976503       0.24844738       0.00462626
C        2.48403183       2.67372211      10.00000000       0.12683844      -0.08792837       0.01589730
C        2.41500233       4.10756281      10.00000000       0.65951521      -0.76331717      -0.00274338
C        3.63739856       4.86418701      10.00000000      -0.82504272       1.60363810      -0.01324957
C        3.68067784       6.30038185      10.00000000       1.65909814      -0.48163819      -0.04600177
C        4.95710118       6.95791183      10.00000000      -1.98807673      -0.23657784       0.00619822
C        4.99842492       8.37232189      10.00000000       0.76482490       0.08630303      -0.00792653
C        6.25024099       9.03652569      10.00000000      -0.18038281      -0.05516090      -0.00100433
C        6.19948042      10.45238139      10.00000000       0.28161505       0.19790826      -0.00079512
Pt       0.64722720       6.58994552      10.00000000       1.93068054       1.58230007       0.99548094
H       -0.05277280       6.58994552      12.20000000       3.78745047       0.03507349      -0.01935314
H        1.34722720       6.58994552      12.20000000      -3.45745342       0.05290447       0.13541748
32
Lattice="9.84 0.0 0.0 4.92 8.521689973238876 0.0 0.0 0.0 20.0" Properties=species:S:1:pos:R:3:forces:R:3 energy=-264.7325444780345 pbc="T T F"
C       -4.90407279       2.72825394      10.00000000      -0.65683683      -0.41377513      -0.00005398
C       -4.95509823       4.14406101      10.00000000       0.88687490       0.32199951       0.00027407
C       -3.70324291       4.80768718      10.00000000      -0.17962938       0.47950018      -0.00002582
C       -3.66224620       6.22199923      10.00000000       0.30813325      -0.14962310       0.00022863
C       -2.38584244       6.87990464      10.00000000      -1.30134466       1.28425241      -0.00014776
C       -2.34260280       8.31639578      10.00000000      -0.39948290       0.28004824      -0.00000726
C       -1.12011677       9.07272175      10.00000000      -1.49822980       0.84125015      -0.00011272
C       -1.18885840      10.50678026      10.00000000      -0.47172678      -0.13657086       0.00016593
C       -2.43055663       2.68615078      10.00000000      -0.09973165      -0.12971715       0.00026625
C       -2.47816054       4.08081684      10.00000000      -0.05996780       0.11867724       0.00024831
C       -1.24980115       4.73157830      10.00000000      -0.55311022      -0.47717613      -0.00118883
C       -1.23757445       6.11658101      10.00000000       2.55455769      -0.27100534       0.00000549
C        0.11440283       8.45981585      10.00000000      -0.50580699      -1.38417498      -0.00148240
C        1.30792642       9.16224746      10.00000000       0.65196025      -0.88496791      -0.00091211
C        1.25803020      10.55216557      10.00000000       0.69452531       1.10813212       0.00013563
C        0.03720704       2.62807678      10.00000000      -0.09417012      -0.57285715      -0.00008771
C       -0.01311689       4.01783507      10.00000000       0.17288856      -0.66983852      -0.00098444
C        1.17960686       4.71982639      10.00000000       0.42253646       0.21196003      -0.00040004
C        2.54438514       8.44872938      10.00000000      -0.24862397      -0.98912819      -0.00061287
C        3.77341498       9.09884503      10.00000000      -0.65195548      -1.70927843       0.00006375
C        3.72607066      10.49363473      10.00000000      -0.36985927       0.38453465       0.00024377
C        2.48403183       2.67372211      10.00000000       0.30910923       0.04007758       0.00008403
C        2.41500233       4.10756281      10.00000000       0.39693109      -1.04983798      -0.00028336
C        3.63739856       4.86418701      10.00000000      -0.83164911       1.67297186      -0.00007186
C        3.68067784       6.30038185      10.00000000       1.59860913      -0.52798410      -0.00040775
C        4.95710118       6.95791183      10.00000000      -1.94889823      -0.27669855       0.00029369
C        4.99842492       8.37232189      10.00000000       0.75915899      -0.19616197      -0.00007731
C        6.25024099       9.03652569      10.00000000      -0.32487163      -0.07670904       0.00020362
C        6.19948042      10.45238139      10.00000000       0.47276515       0.29743700      -0.00000744
Pt       0.64722720       6.58994552      10.00000000       0.97389320       2.87615057       0.00797023
H        0.64722720       6.58994552      13.20000000      -0.00102918      -0.00388884      -0.57432799
H        0.64722720       6.58994552      13.94000000       0.00108409       0.00313308       0.57404063
33
Lattice="9.84 0.0 0.0 4.92 8.521689973238876 0.0 0.0 0.0 20.0" Properties=species:S:1:pos:R:3:forces:R:3 energy=-264.6955104490146 pbc="T T F"
C       -4.90407279       2.72825394      10.00000000      -0.09475058      -0.13945240      -0.00411354
C       -4.95509823       4.14406101      10.00000000      -0.24446111      -0.07413534      -0.00055427
C       -3.70324291       4.80768718      10.00000000       0.11093637       0.14789457      -0.00197052
C       -3.66224620       6.22199923      10.00000000      -0.00073048       0.24652865       0.01320825
C       -2.38584244       6.87990464      10.00000000      -0.20291697      -0.36719331      -0.05960413
C       -2.34260280       8.31639578      10.00000000       0.03951313       0.03582290       0.03674108
C       -1.12011677       9.07272175      10.00000000       0.07765968       0.09001058      -0.00277392
C       -1.18885840      10.50678026      10.00000000       0.05517302       0.01384610       0.01412134
C       -2.43055663       2.68615078      10.00000000       0.00005377       0.02337370       0.00387728
C       -2.47816054       4.08081684      10.00000000      -0.22948999      -0.10696874       0.01192468
C       -1.24980115       4.73157830      10.00000000      -0.43675626       0.86888442      -0.01015506
N       -1.23757445       6.11658101      10.00000000      -1.71199345      -0.74683873      -0.73119625
N        0.11440283       8.45981585      10.00000000       0.55564138       1.03063331      -0.46305255
C        1.30792642       9.16224746      10.00000000      -0.86844729       0.48603876       0.01737493
C        1.25803020      10.55216557      10.00000000      -0.22345794       0.06794732       0.05504340
C        0.03720704       2.62807678      10.00000000      -0.00263722      -0.08563053       0.03016281
C       -0.01311689       4.01783507      10.00000000       0.90234568       0.00505871       0.04685573
N        1.17960686       4.71982639      10.00000000      -0.44003036      -0.39422922      -0.47158531
C        2.53175081       7.06378150      10.00000000      -0.82833533       0.33280524      -0.53398272
C        2.54438514       8.44872938      10.00000000       0.06708365       0.17080178      -0.00868001
C        3.77341498       9.09884503      10.00000000       0.07052811       0.37660795       0.02680921
C        3.72607066      10.49363473      10.00000000       0.21929274      -0.05950754       0.00658399
C        2.48403183       2.67372211      10.00000000      -0.05427292       0.07672314       0.02258216
C        2.41500233       4.10756281      10.00000000       0.36868638      -0.20219262       0.01936176
C        3.63739856       4.86418701      10.00000000       0.33414224      -0.37322392      -0.00797631
C        3.68067784       6.30038185      10.00000000       0.93561766      -0.79281023       0.01209732
C        4.95710118       6.95791183      10.00000000       0.19475455      -0.15668779      -0.00090588
C        4.99842492       8.37232189      10.00000000       0.04093859      -0.15929438       0.00294777
C        6.25024099       9.03652569      10.00000000       0.02116102      -0.09365291      -0.00073078
C        6.19948042      10.45238139      10.00000000       0.11839792       0.09935082      -0.00758696
Pt       0.64722720       6.58994552      10.00000000       1.26837735      -0.35542908       2.43662268
H       -0.25277280       6.58994552      12.20000000       2.36694352       0.04675881       0.04476203
H        1.54722720       6.58994552      12.20000000      -2.40203002      -0.00985695      -0.48919663
32
Lattice="9.84 0.0 0.0 4.92 8.521689973238876 0.0 0.0 0.0 20.0" Properties=species:S:1:pos:R:3:forces:R:3 energy=-255.04632813895205 pbc="T T F"
C       -4.90407279       2.72825394      10.00000000      -0.28191683      -0.19750763      -0.00143967
C       -4.95509823       4.14406101      10.00000000       0.44413014      -0.07175029      -0.00833593
C       -3.70324291       4.80768718      10.00000000      -0.06150958       0.27133558       0.00004098
C       -3.66224620       6.22199923      10.00000000       0.49359100       0.02563183      -0.00185482
C       -2.38584244       6.87990464      10.00000000      -0.13624948       0.36867146      -0.00588831
C       -2.34260280       8.31639578      10.00000000       0.06734738       0.06729650       0.00729498
C       -1.12011677       9.07272175      10.00000000      -0.01705440      -0.11611479      -0.00740691
C       -1.18885840      10.50678026      10.00000000      -0.06900621      -0.07115633       0.00103220
C       -2.43055663       2.68615078      10.00000000       0.14249625      -0.22660162      -0.00122314
C       -2.47816054       4.08081684      10.00000000      -0.06540833       0.17221025       0.00152746
C       -1.24980115       4.73157830      10.00000000      -0.06431546       0.35754989      -0.00137248
N       -1.23757445       6.11658101      10.00000000       0.37925796      -0.92015144      -0.06526458
N        0.11440283       8.45981585      10.00000000      -0.45303451       0.49105223      -0.06462359
C        1.30792642       9.16224746      10.00000000       0.35086137      -1.12219044       0.00910219
C        1.25803020      10.55216557      10.00000000       0.03249035       0.59739298       0.01295106
C        0.03720704       2.62807678      10.00000000      -0.06561902      -0.14988951       0.00589096
C       -0.01311689       4.01783507      10.00000000       0.62780509      -0.05608986       0.00727832
N        1.17960686       4.71982639      10.00000000       0.02352948      -0.17918669      -0.09146305
C        2.54438514       8.44872938      10.00000000      -1.82784525      -0.87141972      -0.03296676
C        3.77341498       9.09884503      10.00000000      -0.97233662      -1.66021006      -0.00153294
C        3.72607066      10.49363473      10.00000000      -0.08178068       0.23180921       0.00073151
C        2.48403183       2.67372211      10.00000000      -0.08035833       0.01273598       0.00958373
C        2.41500233       4.10756281      10.00000000      -0.11220887      -0.54700098       0.01330969
C        3.63739856       4.86418701      10.00000000      -0.53186467       1.53581727      -0.01187865
C        3.68067784       6.30038185      10.00000000       1.37657385      -0.62723898       0.02949090
C        4.95710118       6.95791183      10.00000000      -1.63085897      -0.38579145      -0.00829632
C        4.99842492       8.37232189      10.00000000       0.81366711       0.23148764       0.00018558
C        6.25024099       9.03652569      10.00000000      -0.29834479      -0.30400760      -0.00123479
C        6.19948042      10.45238139      10.00000000       0.15444530       0.12986331      -0.00374722
Pt       0.64722720       6.58994552      10.00000000       1.81683977       3.01122480      -0.31016526
H        0.64722720       6.58994552      12.20000000       0.02367459       0.00588963      -0.66905729
H        0.64722720       6.58994552      12.94000000       0.01194170       0.00242061       1.18455616
31
Lattice="9.84 0.0 0.0 4.92 8.521689973238876 0.0 0.0 0.0 20.0" Properties=species:S:1:pos:R:3:forces:R:3 energy=-258.59944350699783 pbc="T T F"
C       -4.87426994       2.71995808      10.03886131      -1.98714723      -0.20829665      -1.68877845
C       -4.86371644       4.13001181       9.98595178      -2.66745447       2.71093598      -0.79585848
C       -3.60849014       4.85373326       9.97183154      -3.25189563      -5.50621865       0.09459617
C       -3.62969260       6.19419417       9.97205621      -1.32079274       0.64346391      -0.33280374
C       -2.37132470       6.76510783       9.89650493      -6.63904195       9.68631867       0.83763689
C       -2.37634005       8.25562591      10.01885484      -0.49416342      -0.37874252      -0.12250732
C       -1.17459821       8.98798353      10.08793893       1.15708197       2.47470779      -2.22013719
C       -1.20240498      10.51083195       9.91451511       0.12318404      -0.92889567       2.33053138
C       -2.46321959       2.69280614       9.93094039       0.21166978      -0.31490740       0.73967856
C       -2.45561866       4.04477852       9.98249838       0.25294392       4.81625861      -0.12735235
C       -1.28590355       4.84271499       9.99919017       1.54631493      -6.82555313      -0.15234489
N       -1.30103711       6.16593370       9.92674938       7.94758662      -4.72659796       0.38581556
C        0.12693465       8.34223564       9.92030884      -0.36506106       7.55547721       1.40769693
C        1.31973809       9.20655545      10.01028210      -2.75162087      -4.45055193      -0.44902607
C        1.25109130      10.53409935       9.91128868       0.07425646       2.32311513       1.00426511
C       -0.00598361       2.60043845      10.06342733       1.51387059      -3.49718217       0.06023663
C        0.00750021       3.91205266      10.01944504      -1.31835859       7.87074298       0.19876792
C        1.15650192       4.67921107      10.03670058      -1.27309672       1.46764597       0.24722436
N        2.59361078       7.11965831       9.94964695      -1.89791780       0.04759396       0.68496438
C        2.52583240       8.46860519      10.05853271       2.34061663      -1.27207338      -1.35904402
C        3.74466453       9.08770549       9.93361990       1.45061772       3.80990019       1.69283888
C        3.65429826      10.54238628      10.08137440       2.05831514      -4.51814312      -1.58243521
C        2.47971122       2.73393408      10.02169816       0.46288800      -3.65950856      -0.16228545
C        2.37629514       4.12924655      10.09228219       4.10131503       0.83103379      -1.85985907
C        3.63524900       4.95806563       9.84281529       0.95586910      -6.67570073       2.44875249
C        3.72999199       6.30560467       9.98205956      -2.54698515       1.11095571      -0.63436522
C        4.96260683       6.83865770       9.98681969       3.12594512       7.43642905      -0.06382475
C        5.01985167       8.46099553       9.96890379      -5.52701702      -7.60220513      -0.07528408
C        6.20173137       9.00642027      10.05492413       5.56944065       2.15395969      -0.43880206
C        6.21920549      10.42059578      10.03079605      -1.08069027       2.11263112       0.57628182
Pt       0.65305185       6.64806422       9.95787681       0.23507696      -6.48545710      -0.46584427
33
Lattice="9.84 0.0 0.0 4.92 8.521689973238876 0.0 0.0 0.0 20.0" Properties=species:S:1:pos:R:3:forces:R:3 energy=-268.069528594627 pbc="T T F"
C       -4.90407279       2.72825394      10.00000000      -0.11379837      -0.13324115      -0.00362044
C       -4.95509823       4.14406101      10.00000000      -0.23538129      -0.08737088      -0.00072270
C       -3.70324291       4.80768718      10.00000000       0.10313108       0.17549071      -0.00246345
C       -3.66224620       6.22199923      10.00000000      -0.01286561       0.29109720       0.00779428
C       -2.38584244       6.87990464      10.00000000      -0.21165371      -0.47065223      -0.01751549
C       -2.34260280       8.31639578      10.00000000       0.03163840       0.07583104       0.01036819
C       -1.12011677       9.07272175      10.00000000       0.08724380       0.12621128      -0.01286813
C       -1.18885840      10.50678026      10.00000000       0.03430570      -0.00228996       0.01162034
C       -2.43055663       2.68615078      10.00000000      -0.01806993       0.02934298       0.00080435
C       -2.47816054       4.08081684      10.00000000      -0.23227436      -0.14185022       0.00973087
C       -1.24980115       4.73157830      10.00000000      -0.53910015       0.98175164       0.01135247
N       -1.23757445       6.11658101      10.00000000      -1.48669272      -0.62841056      -0.26210222
N        0.11440283       8.45981585      10.00000000       0.56064297       0.94435856      -0.25770024
C        1.30792642       9.16224746      10.00000000      -0.97265070       0.51762185       0.01680125
C        1.25803020      10.55216557      10.00000000      -0.21587329       0.07915853       0.02603836
C        0.03720704       2.62807678      10.00000000      -0.01147633      -0.09078100       0.01408697
C       -0.01311689       4.01783507      10.00000000       1.03762182      -0.05303480       0.01531056
N        1.17960686       4.71982639      10.00000000      -0.47159246      -0.24963552      -0.26790765
C        2.53175081       7.06378150      10.00000000      -1.22345184       0.19664926      -0.32710061
C        2.54438514       8.44872938      10.00000000       0.18927477       0.03637833       0.02147184
C        3.77341498       9.09884503      10.00000000       0.08583394       0.42138752       0.01733388
C        3.72607066      10.49363473      10.00000000       0.25861781      -0.08464017       0.00128690
C        2.48403183       2.67372211      10.00000000      -0.04388277       0.08129841       0.01306871
C        2.41500233       4.10756281      10.00000000       0.31278466      -0.24876372      -0.00202156
C        3.63739856       4.86418701      10.00000000       0.34353749      -0.35703874       0.00586140
C        3.68067784       6.30038185      10.00000000       0.91443410      -0.67236943       0.00943025
C        4.95710118       6.95791183      10.00000000       0.19860260      -0.20395308       0.00644563
C        4.99842492       8.37232189      10.00000000       0.03936951      -0.15836049      -0.00132262
C        6.25024099       9.03652569      10.00000000       0.03399459      -0.10512195       0.00021652
C        6.19948042      10.45238139      10.00000000       0.12471593       0.10191767      -0.00371998
Pt       0.64722720       6.58994552      10.00000000       1.46478516      -0.37850408      -0.51388286
H        0.27722720       6.58994552      12.20000000      -0.74050826       0.01049921       0.77389678
H        1.01722720       6.58994552      12.20000000       0.71303946      -0.00355439       0.70185577
32
Lattice="9.84 0.0 0.0 4.92 8.521689973238876 0.0 0.0 0.0 20.0" Properties=species:S:1:pos:R:3:forces:R:3 energy=-261.44591812495605 pbc="T T F"
C       -4.90407279       2.72825394      10.00000000      -0.62847933      -0.42599004      -0.00161354
C       -4.95509823       4.14406101      10.00000000       0.80708913       0.37823018       0.00963835
C       -3.70324291       4.80768718      10.00000000      -0.17092301       0.42176695      -0.00231401
C       -3.66224620       6.22199923      10.00000000       0.26609138      -0.08866855       0.00822149
C       -2.38584244       6.87990464      10.00000000      -1.12316355       1.30076453       0.01693542
C       -2.34260280       8.31639578      10.00000000      -0.26656073       0.16111386      -0.00296402
C       -1.12011677       9.07272175      10.00000000      -0.03101294       0.49241747      -0.00460065
C       -1.18885840      10.50678026      10.00000000      -0.19653132      -0.18576717       0.00438162
C       -2.43055663       2.68615078      10.00000000      -0.02115533      -0.22053828       0.00383070
C       -2.47816054       4.08081684      10.00000000      -0.05016563       0.05447604       0.03353310
C       -1.24980115       4.73157830      10.00000000      -0.42351936      -0.50458657       0.00559710
C       -1.23757445       6.11658101      10.00000000       2.13991187      -0.76167679      -0.32200036
N        0.11440283       8.45981585      10.00000000      -0.70925029       1.10945436      -0.17965391
C        1.30792642       9.16224746      10.00000000      -0.59624908      -1.37946951      -0.01246602
C        1.25803020      10.55216557      10.00000000       0.36641323       0.83867751      -0.00650769
C        0.03720704       2.62807678      10.00000000      -0.09310895      -0.47622259       0.03605269
C       -0.01311689       4.01783507      10.00000000       0.02564520      -0.73655905       0.01726670
C        1.17960686       4.71982639      10.00000000      -0.29295911       0.79301883      -0.31300359
C        2.54438514       8.44872938      10.00000000      -0.59847085      -1.22864323       0.01645106
C        3.77341498       9.09884503      10.00000000      -0.72872454      -1.66292351       0.00223395
C        3.72607066      10.49363473      10.00000000      -0.16776552       0.23155590       0.00123450
C        2.48403183       2.67372211      10.00000000       0.14325683      -0.07917253       0.01596640
C        2.41500233       4.10756281      10.00000000       0.61889013      -0.79205288       0.00992859
C        3.63739856       4.86418701      10.00000000      -0.79478311       1.64331164      -0.00967288
C        3.68067784       6.30038185      10.00000000       1.64035288      -0.45910403      -0.02025819
C        4.95710118       6.95791183      10.00000000      -1.98608771      -0.25934439      -0.00147967
C        4.99842492       8.37232189      10.00000000       0.76230800       0.08275017      -0.00376105
C        6.25024099       9.03652569      10.00000000      -0.18435908      -0.06710275      -0.00169714
C        6.19948042      10.45238139      10.00000000       0.28806220       0.20715685      -0.00204870
Pt       0.64722720       6.58994552      10.00000000       1.82588771       1.54559147      -0.65200553
H        0.27722720       6.58994552      12.20000000      -0.68084074       0.03484938       0.64529477
H        1.01722720       6.58994552      12.20000000       0.86399711       0.03613352       0.71002130
33
Lattice="9.84 0.0 0.0 4.92 8.521689973238876 0.0 0.0 0.0 20.0" Properties=species:S:1:pos:R:3:forces:R:3 energy=-265.88201819639613 pbc="T T F"
C       -4.90407279       2.72825394      10.00000000       0.00739397      -0.02262065      -0.00240586
C       -4.95509823       4.14406101      10.00000000      -0.00764810       0.00372196       0.00008812
C       -3.70324291       4.80768718      10.00000000       0.01153851      -0.01162223      -0.00240916
C       -3.66224620       6.22199923      10.00000000      -0.02246083       0.03576790       0.00480017
C       -2.38584244       6.87990464      10.00000000       0.02509940      -0.03056631      -0.00753900
C       -2.34260280       8.31639578      10.00000000      -0.01282350       0.02124314       0.00759661
C       -1.12011677       9.07272175      10.00000000       0.01624164      -0.01932558      -0.00756723
C       -1.18885840      10.50678026      10.00000000      -0.00294158       0.01056755       0.00481486
C       -2.43055663       2.68615078      10.00000000      -0.00473064       0.00995210      -0.00189095
C       -2.47816054       4.08081684      10.00000000      -0.00389391       0.00405736       0.00096647
C       -1.24980115       4.73157830      10.00000000       0.03362826       0.01408613       0.00933471
N       -1.23757445       6.11658101      10.00000000      -0.12836146      -0.02027299      -0.05790550
N        0.11440283       8.45981585      10.00000000      -0.02281643       0.09846922      -0.05783362
C        1.30792642       9.16224746      10.00000000       0.01012400       0.00820361       0.00931357
C        1.25803020      10.55216557      10.00000000      -0.03210550      -0.02822047       0.00095715
C        0.03720704       2.62807678      10.00000000       0.02829120       0.01865140       0.00096549
C       -0.01311689       4.01783507      10.00000000      -0.03914445      -0.01150072       0.00932004
N        1.17960686       4.71982639      10.00000000       0.07692513      -0.07031213      -0.05789818
N        2.53175081       7.06378150      10.00000000       0.15517597       0.00221147      -0.05788078
C        2.54438514       8.44872938      10.00000000      -0.02148121      -0.02218124       0.00929943
C        3.77341498       9.09884503      10.00000000      -0.00775952       0.00729006       0.00097522
C        3.72607066      10.49363473      10.00000000      -0.00036107      -0.01337218      -0.00188737
C        2.48403183       2.67372211      10.00000000       0.01387675      -0.01214680       0.00480903
C        2.41500233       4.10756281      10.00000000      -0.02945865       0.02996786      -0.00756404
C        3.63739856       4.86418701      10.00000000       0.01490274      -0.03213754       0.00758339
C        3.68067784       6.30038185      10.00000000      -0.04761774       0.04457799      -0.00754161
C        4.95710118       6.95791183      10.00000000       0.02876357      -0.02632342       0.00478552
C        4.99842492       8.37232189      10.00000000      -0.00843637       0.01093279      -0.00240968
C        6.25024099       9.03652569      10.00000000      -0.00056742      -0.00954636       0.00008861
C        6.19948042      10.45238139      10.00000000      -0.02094872       0.01075019      -0.00240456
Pt       0.64722720       6.58994552      10.00000000      -0.00249147      -0.00025220      -0.46720626
H        0.64722720       6.58994552      12.20000000       0.00001682      -0.00000722      -0.58020468
H        0.64722720       6.58994552      12.94000000      -0.00001293       0.00001953       1.23152757
32
Lattice="9.84 0.0 0.0 4.92 8.521689973238876 0.0 0.0 0.0 20.0" Properties=species:S:1:pos:R:3:forces:R:3 energy=-253.83934216669 pbc="T T F"
C       -4.90407279       2.72825394      10.00000000      -0.26411069      -0.19633180      -0.00361066
C       -4.95509823       4.14406101      10.00000000       0.39993391      -0.09032902      -0.06598774
C       -3.70324291       4.80768718      10.00000000      -0.03234076       0.25175954       0.00962599
C       -3.66224620       6.22199923      10.00000000       0.46958054       0.07024935      -0.01987619
C       -2.38584244       6.87990464      10.00000000      -0.20804908       0.17500447      -0.05154453
C       -2.34260280       8.31639578      10.00000000       0.07316449       0.11520184       0.03400935
C       -1.12011677       9.07272175      10.00000000       0.01423410      -0.15518879      -0.05478273
C       -1.18885840      10.50678026      10.00000000      -0.07228529      -0.05626370      -0.01425444
C       -2.43055663       2.68615078      10.00000000       0.12681386      -0.20505525      -0.00116064
C       -2.47816054       4.08081684      10.00000000      -0.09396604       0.11571508       0.02838184
C       -1.24980115       4.73157830      10.00000000      -0.17227099       0.43916196      -0.05860972
N       -1.23757445       6.11658101      10.00000000      -0.77445792      -1.19477469      -0.63696475
N        0.11440283       8.45981585      10.00000000      -0.46020588       1.01021751      -0.34363058
C        1.30792642       9.16224746      10.00000000       0.20338808      -1.12754410       0.04768816
C        1.25803020      10.55216557      10.00000000      -0.00497535       0.56607086       0.07774437
C        0.03720704       2.62807678      10.00000000      -0.05977115      -0.17301017       0.04020692
C       -0.01311689       4.01783507      10.00000000       0.61117390      -0.03873575       0.03587172
N        1.17960686       4.71982639      10.00000000       0.03010951      -0.54110953      -0.66833599
C        2.54438514       8.44872938      10.00000000      -1.82679375      -0.94754358      -0.26319555
C        3.77341498       9.09884503      10.00000000      -0.91712690      -1.66725500       0.00420448
C        3.72607066      10.49363473      10.00000000      -0.08490718       0.23101020      -0.00139291
C        2.48403183       2.67372211      10.00000000      -0.09095030      -0.00789137       0.07331423
C        2.41500233       4.10756281      10.00000000       0.00338644      -0.50790891       0.11898922
C        3.63739856       4.86418701      10.00000000      -0.53547457       1.45242814      -0.12932748
C        3.68067784       6.30038185      10.00000000       1.46168446      -0.52202553       0.23093534
C        4.95710118       6.95791183      10.00000000      -1.62308732      -0.43368031      -0.06263264
C        4.99842492       8.37232189      10.00000000       0.79795884       0.25042732       0.00157688
C        6.25024099       9.03652569      10.00000000      -0.30052061      -0.31037855      -0.01195845
C        6.19948042      10.45238139      10.00000000       0.17853186       0.13697454      -0.01526354
Pt       0.64722720       6.58994552      10.00000000       2.57536436       3.14161567      -0.95686012
H        0.22222720       6.58994552      11.80000000       1.08768236       0.08962557       1.24948947
H        1.07222720       6.58994552      11.80000000      -0.50953210       0.13031196       1.40009306
32
Lattice="9.84 0.0 0.0 4.92 8.521689973238876 0.0 0.0 0.0 20.0" Properties=species:S:1:pos:R:3:forces:R:3 energy=-262.00122500182306 pbc="T T F"
C       -4.90407279       2.72825394      10.00000000      -0.62657418      -0.42282902      -0.00003842
C       -4.95509823       4.14406101      10.00000000       0.80619187       0.37589735       0.00017990
C       -3.70324291       4.80768718      10.00000000      -0.16783026       0.42992843      -0.00001345
C       -3.66224620       6.22199923      10.00000000       0.26956472      -0.09059576       0.00002438
C       -2.38584244       6.87990464      10.00000000      -1.09150357       1.32550983       0.00003000
C       -2.34260280       8.31639578      10.00000000      -0.26452603       0.15994239      -0.00006470
C       -1.12011677       9.07272175      10.00000000      -0.04189226       0.49988889       0.00016029
C       -1.18885840      10.50678026      10.00000000      -0.20067839      -0.19362022       0.00014212
C       -2.43055663       2.68615078      10.00000000      -0.01688137      -0.22016240       0.00007152
C       -2.47816054       4.08081684      10.00000000      -0.06119778       0.06550604      -0.00034008
C       -1.24980115       4.73157830      10.00000000      -0.40473917      -0.45368880      -0.00011306
C       -1.23757445       6.11658101      10.00000000       2.33145272      -0.69076136       0.00260673
N        0.11440283       8.45981585      10.00000000      -0.71270248       0.96449617       0.00037390
C        1.30792642       9.16224746      10.00000000      -0.54675266      -1.39339558       0.00000888
C        1.25803020      10.55216557      10.00000000       0.36560891       0.85354240       0.00006133
C        0.03720704       2.62807678      10.00000000      -0.09378639      -0.47310811      -0.00029257
C       -0.01311689       4.01783507      10.00000000       0.06799904      -0.72920262      -0.00010014
C        1.17960686       4.71982639      10.00000000      -0.27152902       0.89997063       0.00251389
C        2.54438514       8.44872938      10.00000000      -0.58435303      -1.24600611       0.00007802
C        3.77341498       9.09884503      10.00000000      -0.73215587      -1.64977171       0.00010667
C        3.72607066      10.49363473      10.00000000      -0.16010336       0.22194101       0.00007062
C        2.48403183       2.67372211      10.00000000       0.14974705      -0.07520470      -0.00007185
C        2.41500233       4.10756281      10.00000000       0.57073238      -0.79241401      -0.00005875
C        3.63739856       4.86418701      10.00000000      -0.77046007       1.69593282       0.00011938
C        3.68067784       6.30038185      10.00000000       1.64967916      -0.45376123      -0.00005188
C        4.95710118       6.95791183      10.00000000      -1.97741928      -0.26802393       0.00025503
C        4.99842492       8.37232189      10.00000000       0.76617617       0.08087412      -0.00014282
C        6.25024099       9.03652569      10.00000000      -0.18962295      -0.07878610       0.00024836
C        6.19948042      10.45238139      10.00000000       0.28496317       0.21610867      -0.00003156
Pt       0.64722720       6.58994552      10.00000000       1.65470805       1.45307619       0.00906802
H        0.64722720       6.58994552      14.00000000       0.00106191      -0.00383860      -0.52986972
H        0.64722720       6.58994552      14.74000000      -0.00054531       0.00160649       0.51839054
33
Lattice="9.84 0.0 0.0 4.92 8.521689973238876 0.0 0.0 0.0 20.0" Properties=species:S:1:pos:R:3:forces:R:3 energy=-272.4545611056212 pbc="T T F"
C       -4.90407279       2.72825394      10.00000000      -0.30616055      -0.19517501      -0.00094804
C       -4.95509823       4.14406101      10.00000000       0.03021497       0.17028881      -0.00353397
C       -3.70324291       4.80768718      10.00000000       0.00701413       0.26954432      -0.00381519
C       -3.66224620       6.22199923      10.00000000      -0.09951130       0.11367809       0.00632344
C       -2.38584244       6.87990464      10.00000000      -1.15256181       1.00227386       0.06496507
C       -2.34260280       8.31639578      10.00000000      -0.59290349       0.33723422      -0.01395951
C       -1.12011677       9.07272175      10.00000000      -1.38251893       0.78456580       0.07323398
C       -1.18885840      10.50678026      10.00000000      -0.32048140      -0.07522229      -0.00061038
C       -2.43055663       2.68615078      10.00000000      -0.23610178       0.14052132       0.00078682
C       -2.47816054       4.08081684      10.00000000      -0.22596466      -0.23745271       0.05893168
C       -1.24980115       4.73157830      10.00000000      -0.82544595      -0.21608384       0.04461528
C       -1.23757445       6.11658101      10.00000000       0.82396038      -0.50595964      -0.74973269
C        0.11440283       8.45981585      10.00000000       0.39684698      -0.19147529      -0.64805206
C        1.30792642       9.16224746      10.00000000      -0.31317458       0.41690925       0.02545611
C        1.25803020      10.55216557      10.00000000       0.31767762       0.35220015       0.02183864
C        0.03720704       2.62807678      10.00000000      -0.14706239      -0.31838521       0.02580537
C       -0.01311689       4.01783507      10.00000000       0.18406441      -0.91883169       0.03887925
C        1.17960686       4.71982639      10.00000000      -0.46365842      -0.07728718      -0.58797136
N        2.53175081       7.06378150      10.00000000       1.82324543       1.38953728      -0.73334111
C        2.54438514       8.44872938      10.00000000       1.22293976      -1.01038806      -0.01229444
C        3.77341498       9.09884503      10.00000000       0.23764852       0.01379589       0.04937474
C        3.72607066      10.49363473      10.00000000      -0.03293165      -0.07422044       0.00519813
C        2.48403183       2.67372211      10.00000000       0.40800146       0.08179531      -0.02090862
C        2.41500233       4.10756281      10.00000000       1.28880382      -0.69679287       0.05611077
C        3.63739856       4.86418701      10.00000000       0.20188875      -0.32931856       0.00253296
C        3.68067784       6.30038185      10.00000000       0.39285668       0.22078641       0.02110266
C        4.95710118       6.95791183      10.00000000      -0.03802886      -0.05017648       0.01833585
C        4.99842492       8.37232189      10.00000000      -0.05331048      -0.45410031      -0.00432974
C        6.25024099       9.03652569      10.00000000       0.10200039       0.03015929      -0.00048514
C        6.19948042      10.45238139      10.00000000       0.26542394       0.16176953       0.00060246
Pt       0.64722720       6.58994552      10.00000000      -1.44674991      -0.06280278       0.05285033
H        0.27722720       6.58994552      11.80000000      -2.15586137       0.02160585       1.05791360
H        1.01722720       6.58994552      11.80000000       2.09747069      -0.09150490       1.15037950
33
Lattice="9.84 0.0 0.0 4.92 8.521689973238876 0.0 0.0 0.0 20.0" Properties=species:S:1:pos:R:3:forces:R:3 energy=-271.23552671758415 pbc="T T F"
C       -4.90407279       2.72825394      10.00000000      -0.23331421      -0.17164941      -0.00009601
C       -4.95509823       4.14406101      10.00000000      -0.17263380       0.13039728       0.00020710
C       -3.70324291       4.80768718      10.00000000       0.07025540       0.40698044       0.00002092
C       -3.66224620       6.22199923      10.00000000       0.11081583      -0.05460262       0.00008455
C       -2.38584244       6.87990464      10.00000000      -0.31046311      -0.06976140       0.00008037
C       -2.34260280       8.31639578      10.00000000      -0.29633594       0.26259722      -0.00002126
C       -1.12011677       9.07272175      10.00000000      -1.20452099       0.89020274       0.00002097
C       -1.18885840      10.50678026      10.00000000      -0.38042623      -0.13828726       0.00012192
C       -2.43055663       2.68615078      10.00000000      -0.22898802       0.19743978       0.00004424
C       -2.47816054       4.08081684      10.00000000      -0.30647527      -0.01929070      -0.00019411
C       -1.24980115       4.73157830      10.00000000      -1.37940928       1.66523285      -0.00013785
N       -1.23757445       6.11658101      10.00000000      -0.36776209      -1.62457727       0.00241454
C        0.11440283       8.45981585      10.00000000       0.91335440      -0.15337631       0.00250000
C        1.30792642       9.16224746      10.00000000      -1.08641980       0.33477627      -0.00024156
C        1.25803020      10.55216557      10.00000000       0.31556037       0.46142680      -0.00025105
C        0.03720704       2.62807678      10.00000000      -0.31867537      -0.47240280      -0.00023401
C       -0.01311689       4.01783507      10.00000000       1.05438353      -0.33792856      -0.00020622
C        1.17960686       4.71982639      10.00000000      -0.85399181       0.17608005       0.00249086
N        2.53175081       7.06378150      10.00000000       0.39309408       1.60715155       0.00236304
C        2.54438514       8.44872938      10.00000000       1.39215242      -1.67365130      -0.00012881
C        3.77341498       9.09884503      10.00000000       0.29435065       0.03107279      -0.00020488
C        3.72607066      10.49363473      10.00000000       0.22498619      -0.20100721       0.00005124
C        2.48403183       2.67372211      10.00000000       0.39209321       0.13666540       0.00011171
C        2.41500233       4.10756281      10.00000000       1.18840452      -0.87665143       0.00001443
C        3.63739856       4.86418701      10.00000000       0.29896097      -0.27314702      -0.00002218
C        3.68067784       6.30038185      10.00000000       0.28880480       0.08242418       0.00008191
C        4.95710118       6.95791183      10.00000000      -0.10467083       0.06379371       0.00008141
C        4.99842492       8.37232189      10.00000000      -0.06681625      -0.40750527       0.00001391
C        6.25024099       9.03652569      10.00000000       0.16384820      -0.13593359       0.00020690
C        6.19948042      10.45238139      10.00000000       0.21978521       0.15936806      -0.00011165
Pt       0.64722720       6.58994552      10.00000000      -0.00295426       0.00016920       0.00899836
H        0.64722720       6.58994552      14.00000000      -0.00002516       0.00000483      -0.53439618
H        0.64722720       6.58994552      14.74000000      -0.00003780      -0.00000744       0.52106376
33
Lattice="9.84 0.0 0.0 4.92 8.521689973238876 0.0 0.0 0.0 20.0" Properties=species:S:1:pos:R:3:forces:R:3 energy=-270.7097220626257 pbc="T T F"
C       -4.90407279       2.72825394      10.00000000      -0.22258767      -0.17820821      -0.00001042
C       -4.95509823       4.14406101      10.00000000      -0.17541667       0.13730927      -0.00349724
C       -3.70324291       4.80768718      10.00000000       0.07380536       0.40497749      -0.00354047
C       -3.66224620       6.22199923      10.00000000       0.10943052      -0.06616308       0.01459052
C       -2.38584244       6.87990464      10.00000000      -0.30829433      -0.03136634       0.02033924
C       -2.34260280       8.31639578      10.00000000      -0.30496344       0.23784164      -0.00250368
C       -1.12011677       9.07272175      10.00000000      -1.21805983       0.86363957       0.02295289
C       -1.18885840      10.50678026      10.00000000      -0.35822178      -0.12235263      -0.00310150
C       -2.43055663       2.68615078      10.00000000      -0.20661008       0.18418685       0.00558151
C       -2.47816054       4.08081684      10.00000000      -0.30211354      -0.01361195       0.03761085
C       -1.24980115       4.73157830      10.00000000      -1.33632590       1.62253758       0.01620145
N       -1.23757445       6.11658101      10.00000000      -0.57789726      -1.71377912      -0.41597990
C        0.11440283       8.45981585      10.00000000       0.89557313       0.01857750      -0.36568900
C        1.30792642       9.16224746      10.00000000      -1.01447340       0.32463971       0.01177356
C        1.25803020      10.55216557      10.00000000       0.30283819       0.44914418       0.02111872
C        0.03720704       2.62807678      10.00000000      -0.30590736      -0.46004825       0.02115598
C       -0.01311689       4.01783507      10.00000000       0.98225717      -0.32791748       0.01178157
C        1.17960686       4.71982639      10.00000000      -0.83641352       0.00448845      -0.36565296
N        2.53175081       7.06378150      10.00000000       0.60348859       1.69655592      -0.41596615
C        2.54438514       8.44872938      10.00000000       1.34914627      -1.63113077       0.01626738
C        3.77341498       9.09884503      10.00000000       0.28999221       0.02539145       0.03757703
C        3.72607066      10.49363473      10.00000000       0.20260790      -0.18775646       0.00558036
C        2.48403183       2.67372211      10.00000000       0.36989265       0.12076432      -0.00312368
C        2.41500233       4.10756281      10.00000000       1.20210606      -0.85015565       0.02291833
C        3.63739856       4.86418701      10.00000000       0.30753812      -0.24856723      -0.00248561
C        3.68067784       6.30038185      10.00000000       0.28656908       0.04414100       0.02031608
C        4.95710118       6.95791183      10.00000000      -0.10325023       0.07536624       0.01455949
C        4.99842492       8.37232189      10.00000000      -0.07038745      -0.40549267      -0.00354345
C        6.25024099       9.03652569      10.00000000       0.16662353      -0.14278448      -0.00348008
C        6.19948042      10.45238139      10.00000000       0.20896714       0.16586161      -0.00001292
Pt       0.64722720       6.58994552      10.00000000      -0.00288471       0.00011602      -0.58039934
H        0.64722720       6.58994552      11.80000000       0.00003179      -0.00003136      -0.47868359
H        0.64722720       6.58994552      12.54000000       0.00003520      -0.00008001       2.32786152
32
Lattice="9.84 0.0 0.0 4.92 8.521689973238876 0.0 0.0 0.0 20.0" Properties=species:S:1:pos:R:3:forces:R:3 energy=-261.4048033635127 pbc="T T F"
C       -4.90407279       2.72825394      10.00000000      -0.55444451      -0.41648285       0.02702499
C       -4.95509823       4.14406101      10.00000000       0.91932661       0.29197537       0.04081454
C       -3.70324291       4.80768718      10.00000000      -0.16699571       0.42295515      -0.00962357
C       -3.66224620       6.22199923      10.00000000       0.32054820      -0.15687003       0.04774748
C       -2.38584244       6.87990464      10.00000000      -0.98450015       1.55103170       0.18040230
C       -2.34260280       8.31639578      10.00000000      -0.62637330       0.36246921      -0.03978206
C       -1.12011677       9.07272175      10.00000000      -1.54682567       0.47983581       0.13123856
C       -1.18885840      10.50678026      10.00000000      -0.42457709      -0.06374113      -0.00907757
C       -2.43055663       2.68615078      10.00000000       0.02725913      -0.20579951      -0.01187664
C       -2.47816054       4.08081684      10.00000000      -0.08378657       0.16373384       0.06959133
C       -1.24980115       4.73157830      10.00000000      -0.06161676      -0.75475128       0.16044471
C       -1.23757445       6.11658101      10.00000000       0.68546373      -0.62982479      -1.42384328
C        0.11440283       8.45981585      10.00000000      -0.86975824      -0.38241792      -0.79903374
C        1.30792642       9.16224746      10.00000000       1.06900090      -1.15616663       0.01785649
C        1.25803020      10.55216557      10.00000000       0.62890730       1.08878230      -0.06727905
C        0.03720704       2.62807678      10.00000000      -0.03967491      -0.46978572       0.14530301
C       -0.01311689       4.01783507      10.00000000      -0.07267086      -0.70341815       0.06397025
C        1.17960686       4.71982639      10.00000000       0.46632095      -0.76574264      -0.76898657
C        2.54438514       8.44872938      10.00000000      -0.00882576      -0.15548194      -0.01392844
C        3.77341498       9.09884503      10.00000000      -0.84718807      -1.90140919      -0.04279112
C        3.72607066      10.49363473      10.00000000      -0.28400883       0.39321344       0.01150597
C        2.48403183       2.67372211      10.00000000       0.20407207      -0.15962699      -0.05267919
C        2.41500233       4.10756281      10.00000000       0.35164584      -0.76367997       0.00435451
C        3.63739856       4.86418701      10.00000000      -0.67693046       1.71617235      -0.00912193
C        3.68067784       6.30038185      10.00000000       1.79620829      -0.58804862      -0.04684126
C        4.95710118       6.95791183      10.00000000      -1.90660837      -0.31832763      -0.00363254
C        4.99842492       8.37232189      10.00000000       0.80231204       0.07835295      -0.01104540
C        6.25024099       9.03652569      10.00000000      -0.27736112      -0.14547777       0.02406887
C        6.19948042      10.45238139      10.00000000       0.25658511       0.24381005       0.00717798
Pt       0.64722720       6.58994552      10.00000000       0.97899749       3.02603030      -7.73848891
H        0.27722720       6.58994552      11.40000000      -5.19765230       0.06825223       4.79924333
H        1.01722720       6.58994552      11.40000000       6.12665893      -0.15239264       5.31811402
32
Lattice="9.84 0.0 0.0 4.92 8.521689973238876 0.0 0.0 0.0 20.0" Properties=species:S:1:pos:R:3:forces:R:3 energy=-264.59374260993764 pbc="T T F"
C       -4.90407279       2.72825394      10.00000000      -0.65505945      -0.41454273       0.00066783
C       -4.95509823       4.14406101      10.00000000       0.88956645       0.32200868       0.00248311
C       -3.70324291       4.80768718      10.00000000      -0.17914072       0.47709081      -0.00043909
C       -3.66224620       6.22199923      10.00000000       0.30679602      -0.14971558       0.00382387
C       -2.38584244       6.87990464      10.00000000      -1.30419515       1.28507652       0.00794284
C       -2.34260280       8.31639578      10.00000000      -0.39990865       0.27208802      -0.00304594
C       -1.12011677       9.07272175      10.00000000      -1.49554410       0.83633737       0.00456861
C       -1.18885840      10.50678026      10.00000000      -0.46665792      -0.13132893       0.00074583
C       -2.43055663       2.68615078      10.00000000      -0.09710314      -0.13250983       0.00138283
C       -2.47816054       4.08081684      10.00000000      -0.05681001       0.11804669       0.01245484
C       -1.24980115       4.73157830      10.00000000      -0.54674667      -0.49630448       0.00170749
C       -1.23757445       6.11658101      10.00000000       2.47919258      -0.29815686      -0.11103312
C        0.11440283       8.45981585      10.00000000      -0.51667749      -1.32207583      -0.08194775
C        1.30792642       9.16224746      10.00000000       0.65935494      -0.87719459      -0.00198958
C        1.25803020      10.55216557      10.00000000       0.69303623       1.09975693      -0.00141491
C        0.03720704       2.62807678      10.00000000      -0.09079909      -0.57189476       0.01343958
C       -0.01311689       4.01783507      10.00000000       0.15435255      -0.67237262      -0.00135941
C        1.17960686       4.71982639      10.00000000       0.42042032       0.15909520      -0.11109922
C        2.54438514       8.44872938      10.00000000      -0.24783720      -0.96420395      -0.00467563
C        3.77341498       9.09884503      10.00000000      -0.65961847      -1.71428487      -0.00000178
C        3.72607066      10.49363473      10.00000000      -0.37367154       0.39106422       0.00140187
C        2.48403183       2.67372211      10.00000000       0.30328151       0.03605174       0.00389272
C        2.41500233       4.10756281      10.00000000       0.40317728      -1.04012618       0.00343142
C        3.63739856       4.86418701      10.00000000      -0.83896445       1.66717926      -0.00327306
C        3.68067784       6.30038185      10.00000000       1.59850864      -0.53358025      -0.00636979
C        4.95710118       6.95791183      10.00000000      -1.94916824      -0.27449910      -0.00058243
C        4.99842492       8.37232189      10.00000000       0.75931837      -0.19893738      -0.00087587
C        6.25024099       9.03652569      10.00000000      -0.32490805      -0.07185002      -0.00009887
C        6.19948042      10.45238139      10.00000000       0.46927936       0.29508298       0.00008973
Pt       0.64722720       6.58994552      10.00000000       1.03624733       2.89414130      -0.24259594
H        0.64722720       6.58994552      12.20000000       0.00237089      -0.00602369      -0.69830192
H        0.64722720       6.58994552      12.94000000       0.03451297       0.01638847       1.21491661
33
Lattice="9.84 0.0 0.0 4.92 8.521689973238876 0.0 0.0 0.0 20.0" Properties=species:S:1:pos:R:3:forces:R:3 energy=-271.2451939172209 pbc="T T F"
C       -4.90407279       2.72825394      10.00000000      -0.23281039      -0.17390023      -0.00009557
C       -4.95509823       4.14406101      10.00000000      -0.17186579       0.13050732       0.00019120
C       -3.70324291       4.80768718      10.00000000       0.07060588       0.40595645       0.00001980
C       -3.66224620       6.22199923      10.00000000       0.11060753      -0.05655390       0.00032814
C       -2.38584244       6.87990464      10.00000000      -0.31027435      -0.06674157       0.00026402
C       -2.34260280       8.31639578      10.00000000      -0.29641171       0.26390424      -0.00008347
C       -1.12011677       9.07272175      10.00000000      -1.20229705       0.88786219      -0.00016329
C       -1.18885840      10.50678026      10.00000000      -0.37843113      -0.13818215       0.00018140
C       -2.43055663       2.68615078      10.00000000      -0.22807500       0.19684487       0.00033965
C       -2.47816054       4.08081684      10.00000000      -0.30566671      -0.01847287       0.00036812
C       -1.24980115       4.73157830      10.00000000      -1.37957296       1.66025661      -0.00078472
N       -1.23757445       6.11658101      10.00000000      -0.37287712      -1.62440162      -0.00159460
C        0.11440283       8.45981585      10.00000000       0.91009515      -0.14191907      -0.00109575
C        1.30792642       9.16224746      10.00000000      -1.08642349       0.33459199      -0.00111592
C        1.25803020      10.55216557      10.00000000       0.31462740       0.46050826       0.00002115
C        0.03720704       2.62807678      10.00000000      -0.31775879      -0.47150798      -0.00000627
C       -0.01311689       4.01783507      10.00000000       1.05433708      -0.33773113      -0.00116265
C        1.17960686       4.71982639      10.00000000      -0.85071023       0.16470051      -0.00115788
N        2.53175081       7.06378150      10.00000000       0.39823326       1.60697214      -0.00162384
C        2.54438514       8.44872938      10.00000000       1.39235356      -1.66870207      -0.00077606
C        3.77341498       9.09884503      10.00000000       0.29355741       0.03025778       0.00036535
C        3.72607066      10.49363473      10.00000000       0.22409885      -0.20037945       0.00033137
C        2.48403183       2.67372211      10.00000000       0.39008528       0.13656607       0.00017341
C        2.41500233       4.10756281      10.00000000       1.18622178      -0.87429602      -0.00017857
C        3.63739856       4.86418701      10.00000000       0.29904976      -0.27448719      -0.00008932
C        3.68067784       6.30038185      10.00000000       0.28861621       0.07943724       0.00022929
C        4.95710118       6.95791183      10.00000000      -0.10445205       0.06575261       0.00032614
C        4.99842492       8.37232189      10.00000000      -0.06715969      -0.40647894       0.00002039
C        6.25024099       9.03652569      10.00000000       0.16306024      -0.13606026       0.00019693
C        6.19948042      10.45238139      10.00000000       0.21927719       0.16164003      -0.00009183
Pt       0.64722720       6.58994552      10.00000000      -0.00297012       0.00013419       0.01041897
H        0.64722720       6.58994552      13.20000000       0.00001880       0.00001944      -0.58205727
H        0.64722720       6.58994552      13.94000000      -0.00000815      -0.00000023       0.58154148
33
Lattice="9.84 0.0 0.0 4.92 8.521689973238876 0.0 0.0 0.0 20.0" Properties=species:S:1:pos:R:3:forces:R:3 energy=-265.3603326075405 pbc="T T F"
C       -4.90407279       2.72825394      10.00000000       0.01676457      -0.02185634      -0.00310925
C       -4.95509823       4.14406101      10.00000000      -0.01070213       0.00655843       0.00220808
C       -3.70324291       4.80768718      10.00000000       0.01374822      -0.02145685      -0.00328062
C       -3.66224620       6.22199923      10.00000000      -0.03837598       0.05424152       0.01272282
C       -2.38584244       6.87990464      10.00000000       0.04003165      -0.06952324      -0.03546760
C       -2.34260280       8.31639578      10.00000000      -0.03341629       0.02718090       0.01345922
C       -1.12011677       9.07272175      10.00000000       0.07994579      -0.01400392      -0.02982150
C       -1.18885840      10.50678026      10.00000000      -0.02931033       0.01528631       0.01189666
C       -2.43055663       2.68615078      10.00000000      -0.01735440       0.01654575      -0.00284252
C       -2.47816054       4.08081684      10.00000000      -0.01357651      -0.00171502      -0.00085713
C       -1.24980115       4.73157830      10.00000000       0.03555385       0.01240588       0.00209947
N       -1.23757445       6.11658101      10.00000000      -0.28579565      -0.02753045      -0.12283540
N        0.11440283       8.45981585      10.00000000      -0.08946799       0.19961147      -0.09350858
C        1.30792642       9.16224746      10.00000000      -0.00130536      -0.00193492       0.00796687
C        1.25803020      10.55216557      10.00000000      -0.03152135      -0.01447268       0.00013581
C        0.03720704       2.62807678      10.00000000       0.02767854       0.00492578       0.00015639
C       -0.01311689       4.01783507      10.00000000      -0.02767200      -0.00139136       0.00795323
N        1.17960686       4.71982639      10.00000000       0.14332865      -0.17152624      -0.09368437
N        2.53175081       7.06378150      10.00000000       0.31265719       0.00969014      -0.12280382
C        2.54438514       8.44872938      10.00000000      -0.02337226      -0.02054332       0.00206188
C        3.77341498       9.09884503      10.00000000       0.00191653       0.01306173      -0.00083992
C        3.72607066      10.49363473      10.00000000       0.01224763      -0.01996070      -0.00282709
C        2.48403183       2.67372211      10.00000000       0.04024212      -0.01682670       0.01190042
C        2.41500233       4.10756281      10.00000000      -0.09301297       0.02455553      -0.02980593
C        3.63739856       4.86418701      10.00000000       0.03540629      -0.03809748       0.01345895
C        3.68067784       6.30038185      10.00000000      -0.06253349       0.08352387      -0.03547908
C        4.95710118       6.95791183      10.00000000       0.04467752      -0.04478072       0.01272512
C        4.99842492       8.37232189      10.00000000      -0.01066673       0.02073199      -0.00326445
C        6.25024099       9.03652569      10.00000000       0.00253286      -0.01241436       0.00220174
C        6.19948042      10.45238139      10.00000000      -0.03031023       0.01000070      -0.00311155
Pt       0.64722720       6.58994552      10.00000000      -0.00252027      -0.00035023      -1.28961906
H        0.27722720       6.58994552      12.20000000      -0.58044770       0.01211942       0.87969318
H        1.01722720       6.58994552      12.20000000       0.58050112      -0.01217135       0.87966936
33
Lattice="9.84 0.0 0.0 4.92 8.521689973238876 0.0 0.0 0.0 20.0" Properties=species:S:1:pos:R:3:forces:R:3 energy=-266.06125337762484 pbc="T T F"
C       -4.90407279       2.72825394      10.00000000       0.00205774      -0.02008495      -0.00014695
C       -4.95509823       4.14406101      10.00000000      -0.00775298       0.00376926       0.00013487
C       -3.70324291       4.80768718      10.00000000       0.00667893      -0.00828484      -0.00015554
C       -3.66224620       6.22199923      10.00000000      -0.01414110       0.03300491       0.00009440
C       -2.38584244       6.87990464      10.00000000       0.00373831      -0.01167792       0.00043643
C       -2.34260280       8.31639578      10.00000000      -0.00569008       0.01713752      -0.00024375
C       -1.12011677       9.07272175      10.00000000      -0.01079901      -0.01027159       0.00042469
C       -1.18885840      10.50678026      10.00000000       0.00363576       0.00473799       0.00008863
C       -2.43055663       2.68615078      10.00000000      -0.00291238       0.00887743       0.00004319
C       -2.47816054       4.08081684      10.00000000       0.00492892       0.00788951       0.00012203
C       -1.24980115       4.73157830      10.00000000       0.03307853       0.00577715      -0.00006549
N       -1.23757445       6.11658101      10.00000000      -0.01965794      -0.00353638      -0.00048420
N        0.11440283       8.45981585      10.00000000       0.01709737      -0.00403980      -0.00055242
C        1.30792642       9.16224746      10.00000000       0.01697619       0.01276675      -0.00006276
C        1.25803020      10.55216557      10.00000000      -0.03102764      -0.03778896       0.00013413
C        0.03720704       2.62807678      10.00000000       0.02719980       0.02823153       0.00012504
C       -0.01311689       4.01783507      10.00000000      -0.04606309      -0.01610268      -0.00006994
N        1.17960686       4.71982639      10.00000000       0.03708232       0.03202387      -0.00055767
N        2.53175081       7.06378150      10.00000000       0.04640497      -0.01468002      -0.00053361
C        2.54438514       8.44872938      10.00000000      -0.02090136      -0.01381586      -0.00007228
C        3.77341498       9.09884503      10.00000000      -0.01659872       0.00347429       0.00011559
C        3.72607066      10.49363473      10.00000000      -0.00217670      -0.01232083       0.00003638
C        2.48403183       2.67372211      10.00000000       0.00729661      -0.00633097       0.00009255
C        2.41500233       4.10756281      10.00000000      -0.00247106       0.02095693       0.00044827
C        3.63739856       4.86418701      10.00000000       0.00777744      -0.02803771      -0.00024778
C        3.68067784       6.30038185      10.00000000      -0.02629900       0.02571326       0.00044869
C        4.95710118       6.95791183      10.00000000       0.02046299      -0.02355137       0.00009475
C        4.99842492       8.37232189      10.00000000      -0.00355877       0.00759990      -0.00014365
C        6.25024099       9.03652569      10.00000000      -0.00049927      -0.00959329       0.00014135
C        6.19948042      10.45238139      10.00000000      -0.01560715       0.00820002      -0.00013648
Pt       0.64722720       6.58994552      10.00000000      -0.00249179      -0.00020403       0.01550258
H        0.64722720       6.58994552      14.00000000      -0.00002672      -0.00001486      -0.53077503
H        0.64722720       6.58994552      14.74000000      -0.00003841      -0.00002937       0.51852522
33
Lattice="9.84 0.0 0.0 4.92 8.521689973238876 0.0 0.0 0.0 20.0" Properties=species:S:1:pos:R:3:forces:R:3 energy=-271.11935981429957 pbc="T T F"
C       -4.90407279       2.72825394      10.00000000      -0.39113079      -0.32932030      -0.00094530
C       -4.95509823       4.14406101      10.00000000      -0.02213030       0.36746646      -0.00049497
C       -3.70324291       4.80768718      10.00000000      -0.01678902       0.24266197      -0.00057351
C       -3.66224620       6.22199923      10.00000000      -0.17217915       0.19252717       0.00113217
C       -2.38584244       6.87990464      10.00000000      -1.01650914       0.74322043       0.00365715
C       -2.34260280       8.31639578      10.00000000      -0.46254003      -0.00308223       0.00109748
C       -1.12011677       9.07272175      10.00000000       0.04229878       0.48408778       0.00298232
C       -1.18885840      10.50678026      10.00000000      -0.03446341       0.00078527       0.00325169
C       -2.43055663       2.68615078      10.00000000      -0.27721779       0.09764549       0.00103857
C       -2.47816054       4.08081684      10.00000000      -0.27103497      -0.29971786       0.01701839
C       -1.24980115       4.73157830      10.00000000      -1.11123048       0.46078745       0.00598154
C       -1.23757445       6.11658101      10.00000000       1.05801697      -0.86541560      -0.14001153
N        0.11440283       8.45981585      10.00000000       0.55764573       1.66444551      -0.11115780
C        1.30792642       9.16224746      10.00000000      -2.34074469       0.10926939       0.00233197
C        1.25803020      10.55216557      10.00000000       0.08884035       0.26011540       0.00341491
C        0.03720704       2.62807678      10.00000000      -0.10045651      -0.36524407       0.01705871
C       -0.01311689       4.01783507      10.00000000       0.91519900      -0.78011883       0.00598445
C        1.17960686       4.71982639      10.00000000      -1.24810341       0.53862883      -0.13972992
N        2.53175081       7.06378150      10.00000000       1.22525358       1.29025287      -0.11150149
C        2.54438514       8.44872938      10.00000000       1.24087178      -2.00744855       0.00235352
C        3.77341498       9.09884503      10.00000000       0.18294323       0.25718101       0.00342266
C        3.72607066      10.49363473      10.00000000       0.21258178      -0.20561564       0.00103185
C        2.48403183       2.67372211      10.00000000       0.22451046      -0.06260569       0.00111296
C        2.41500233       4.10756281      10.00000000       1.16445055      -0.48429687       0.00361099
C        3.63739856       4.86418701      10.00000000       0.21739673      -0.43619692       0.00110508
C        3.68067784       6.30038185      10.00000000       0.37314179       0.32085022       0.00298299
C        4.95710118       6.95791183      10.00000000       0.03651551      -0.05948163       0.00323834
C        4.99842492       8.37232189      10.00000000      -0.07512476      -0.48731282      -0.00095055
C        6.25024099       9.03652569      10.00000000       0.32201947       0.16038530      -0.00050110
C        6.19948042      10.45238139      10.00000000       0.21259103       0.11286769      -0.00057459
Pt       0.64722720       6.58994552      10.00000000      -0.52639054      -0.91019807      -0.12484975
H        0.64722720       6.58994552      12.20000000      -0.01313707      -0.02275546      -0.73542846
H        0.64722720       6.58994552      12.94000000       0.01161693       0.02015001       1.27850768
32
Lattice="9.84 0.0 0.0 4.92 8.521689973238876 0.0 0.0 0.0 20.0" Properties=species:S:1:pos:R:3:forces:R:3 energy=-258.0102569995053 pbc="T T F"
C       -4.90407279       2.72825394      10.00000000      -0.57437114      -0.41787061      -0.00315911
C       -4.95509823       4.14406101      10.00000000       0.82831719       0.35757139       0.07780278
C       -3.70324291       4.80768718      10.00000000      -0.17742412       0.35706533      -0.00780016
C       -3.66224620       6.22199923      10.00000000       0.28325153      -0.05852092      -0.04476732
C       -2.38584244       6.87990464      10.00000000      -1.39738666       1.79256965       0.04881987
C       -2.34260280       8.31639578      10.00000000      -0.29337588       0.15182390      -0.13206945
C       -1.12011677       9.07272175      10.00000000      -0.20120661       0.34108602       0.06065208
C       -1.18885840      10.50678026      10.00000000      -0.16659352      -0.16074558       0.02945064
C       -2.43055663       2.68615078      10.00000000       0.03739592      -0.27095398       0.02081207
C       -2.47816054       4.08081684      10.00000000       0.04990252       0.12393666      -0.00626532
C       -1.24980115       4.73157830      10.00000000      -0.10993823      -1.26562365      -0.02934479
C       -1.23757445       6.11658101      10.00000000       1.55472293      -0.57053481       0.15738540
N        0.11440283       8.45981585      10.00000000      -0.84322125       1.33732799      -0.51935445
C        1.30792642       9.16224746      10.00000000      -0.25394342      -1.40461452       0.00061875
C        1.25803020      10.55216557      10.00000000       0.39015274       0.77438299      -0.02327505
C        0.03720704       2.62807678      10.00000000      -0.04675159      -0.42297573       0.10678800
C       -0.01311689       4.01783507      10.00000000      -0.33366883      -0.61195431       0.01890134
C        1.17960686       4.71982639      10.00000000      -0.27458550       0.54869347      -0.42117243
C        2.54438514       8.44872938      10.00000000      -0.59512843      -0.65068197      -0.14936117
C        3.77341498       9.09884503      10.00000000      -0.76620871      -1.84724721       0.11868907
C        3.72607066      10.49363473      10.00000000      -0.23430279       0.29775010       0.03915171
C        2.48403183       2.67372211      10.00000000       0.05782576      -0.14445795      -0.03126658
C        2.41500233       4.10756281      10.00000000       0.69146595      -0.62368420      -0.11072374
C        3.63739856       4.86418701      10.00000000      -0.82583216       1.55590388      -0.02481174
C        3.68067784       6.30038185      10.00000000       1.72974749      -0.52194442      -0.20397377
C        4.95710118       6.95791183      10.00000000      -1.91382638      -0.11147171       0.08167784
C        4.99842492       8.37232189      10.00000000       0.78869706       0.11846331      -0.03591362
C        6.25024099       9.03652569      10.00000000      -0.16882179      -0.05823893       0.00342023
C        6.19948042      10.45238139      10.00000000       0.22926235       0.16036033       0.00690590
Pt       0.64722720       6.58994552      10.00000000       2.30618170       1.34544167       3.69525088
H       -0.50277280       6.58994552      11.80000000       1.05902360      -0.23914626      -1.66302006
H        1.79722720       6.58994552      11.80000000      -0.82393488       0.12419272      -1.07900586
31
Lattice="9.84 0.0 0.0 4.92 8.521689973238876 0.0 0.0 0.0 20.0" Properties=species:S:1:pos:R:3:forces:R:3 energy=-267.8502660976891 pbc="T T F"
C       -4.88917137       2.72410601      10.01943066      -1.43709396      -0.26862240      -0.86695095
C       -4.90940733       4.13703641       9.99297589      -1.40700885       1.46962232      -0.41396606
C       -3.65586653       4.83071022       9.98591577      -1.74342504      -2.31941179       0.04358227
C       -3.64596940       6.20809670       9.98602811      -0.76745799       0.52286499      -0.18002183
C       -2.37858357       6.82250623       9.94825247      -3.93266141       5.25694457       0.41942813
C       -2.35947143       8.28601085      10.00942742      -0.47682308      -0.06239888      -0.04112925
C       -1.14735749       9.03035264      10.04396946      -0.16625996       1.76340201      -1.10348550
C       -1.19563169      10.50880611       9.95725755      -0.07308703      -0.71191780       1.15443200
C       -2.44688811       2.68947846       9.96547019       0.35672274      -0.22674905       0.43057431
C       -2.46688960       4.06279768       9.99124919      -0.00335325       2.03163811      -0.01097429
C       -1.26785235       4.78714665       9.99959508       1.09071207      -4.92107549      -0.06781984
C       -1.26930578       6.14125736       9.96337469       4.48086553      -1.15064132       0.06321974
C        0.12066874       8.40102575       9.96015442      -0.39992167       2.58178961       0.77357391
C        1.31383226       9.18440146      10.00514105      -0.80796030      -1.28269644      -0.28043897
C        1.25456075      10.54313246       9.95564434       0.01813241       1.05910984       0.52494393
C        0.01561171       2.61425762      10.03171367       0.91303378      -1.61658542      -0.02082888
C       -0.00280834       3.96494387      10.00972252      -1.89340514       3.20762244       0.15086375
C        1.16805439       4.69951873      10.01835029      -0.52963690       1.60097751       0.11402824
C        2.56268080       7.09171990       9.97482347      -1.96871123      -1.35387185       0.33094774
C        2.53510877       8.45866728      10.02926635       1.13715198       1.04350841      -0.63584282
C        3.75903975       9.09327526       9.96680995       0.77311514       2.16960297       0.85341099
C        3.69018446      10.51801050      10.04068720       0.89306727      -2.19866108      -0.81763812
C        2.48187153       2.70382810      10.01084908       0.38481500      -1.75239235      -0.06074962
C        2.39564874       4.11840468      10.04614110       3.03190391       0.09879464      -0.92516219
C        3.63632378       4.91112632       9.92140765       0.94045622      -3.77330748       1.41763316
C        3.70533492       6.30299326       9.99102978       0.08107213      -0.13407682      -0.49479582
C        4.95985400       6.89828476       9.99340984       1.57265916       4.03199409      -0.05010653
C        5.00913830       8.41665871       9.98445189      -2.33160195      -4.75719540       0.05377154
C        6.22598618       9.02147298      10.02746206       2.26249148       1.15121896      -0.27184809
C        6.20934295      10.43648858      10.01539802      -0.34254908       1.17811013       0.28645394
Pt       0.65013953       6.61900487       9.97893841       0.34617708      -2.63471617      -0.35245356
33
Lattice="9.84 0.0 0.0 4.92 8.521689973238876 0.0 0.0 0.0 20.0" Properties=species:S:1:pos:R:3:forces:R:3 energy=-262.5548073231206 pbc="T T F"
C       -4.90407279       2.72825394      10.00000000       0.07425367      -0.06393935      -0.00752839
C       -4.95509823       4.14406101      10.00000000      -0.05314224       0.03626739       0.00820441
C       -3.70324291       4.80768718      10.00000000       0.06921504      -0.04099680      -0.00917184
C       -3.66224620       6.22199923      10.00000000      -0.13443527       0.06480804       0.07107290
C       -2.38584244       6.87990464      10.00000000       0.20369804      -0.16028294      -0.14139790
C       -2.34260280       8.31639578      10.00000000      -0.10677532       0.05577600       0.04603538
C       -1.12011677       9.07272175      10.00000000       0.25027004      -0.07850668      -0.08273638
C       -1.18885840      10.50678026      10.00000000      -0.08844126       0.06861183       0.04322286
C       -2.43055663       2.68615078      10.00000000       0.00793997       0.00214100       0.00070133
C       -2.47816054       4.08081684      10.00000000      -0.09535827       0.02228062       0.00231174
C       -1.24980115       4.73157830      10.00000000       0.13489911       0.02569535      -0.00637601
N       -1.23757445       6.11658101      10.00000000      -1.34172705      -0.25241678      -0.88767900
N        0.11440283       8.45981585      10.00000000      -0.32629133       0.79256279      -0.40480169
C        1.30792642       9.16224746      10.00000000       0.02292694      -0.10484249       0.03415884
C        1.25803020      10.55216557      10.00000000      -0.07634648       0.04930656      -0.00140132
C        0.03720704       2.62807678      10.00000000       0.07258711      -0.05874558      -0.00129107
C       -0.01311689       4.01783507      10.00000000      -0.05149028       0.10158009       0.03414574
N        1.17960686       4.71982639      10.00000000       0.37927443      -0.76441010      -0.40464129
N        2.53175081       7.06378150      10.00000000       1.36846816       0.23566840      -0.88769456
C        2.54438514       8.44872938      10.00000000      -0.12267115      -0.03411081      -0.00652857
C        3.77341498       9.09884503      10.00000000       0.08363766      -0.01112286       0.00241640
C        3.72607066      10.49363473      10.00000000      -0.01314377      -0.00540698       0.00076789
C        2.48403183       2.67372211      10.00000000       0.09928071      -0.06996288       0.04318682
C        2.41500233       4.10756281      10.00000000      -0.26295759       0.08857004      -0.08267485
C        3.63739856       4.86418701      10.00000000       0.10855126      -0.06650965       0.04603991
C        3.68067784       6.30038185      10.00000000      -0.22570856       0.17401197      -0.14141530
C        4.95710118       6.95791183      10.00000000       0.14065215      -0.05535174       0.07109547
C        4.99842492       8.37232189      10.00000000      -0.06628721       0.04020515      -0.00918670
C        6.25024099       9.03652569      10.00000000       0.04524327      -0.04234372       0.00818524
C        6.19948042      10.45238139      10.00000000      -0.08779476       0.05235410      -0.00752286
Pt       0.64722720       6.58994552      10.00000000      -0.00264393      -0.00059284       0.88062664
H       -0.05277280       6.58994552      11.80000000       3.00199274       0.04607619       0.88328996
H        1.34722720       6.58994552      11.80000000      -3.00181085      -0.04644257       0.88311389
32
Lattice="9.84 0.0 0.0 4.92 8.521689973238876 0.0 0.0 0.0 20.0" Properties=species:S:1:pos:R:3:forces:R:3 energy=-254.99594139832746 pbc="T T F"
C       -4.90407279       2.72825394      10.00000000      -0.28330449      -0.19583957      -0.00192212
C       -4.95509823       4.14406101      10.00000000       0.44426563      -0.07299150      -0.01238934
C       -3.70324291       4.80768718      10.00000000      -0.06469935       0.26888260       0.00048107
C       -3.66224620       6.22199923      10.00000000       0.49080987       0.03156215      -0.00493990
C       -2.38584244       6.87990464      10.00000000      -0.14568780       0.35930664      -0.01442336
C       -2.34260280       8.31639578      10.00000000       0.06280487       0.06506879       0.00901706
C       -1.12011677       9.07272175      10.00000000      -0.00468435      -0.10409757      -0.01243251
C       -1.18885840      10.50678026      10.00000000      -0.07396560      -0.07323666       0.00076292
C       -2.43055663       2.68615078      10.00000000       0.13908964      -0.22523865      -0.00151361
C       -2.47816054       4.08081684      10.00000000      -0.06490986       0.16911099      -0.00091927
C       -1.24980115       4.73157830      10.00000000      -0.06725355       0.34903902      -0.00754494
N       -1.23757445       6.11658101      10.00000000       0.40167308      -0.90736839      -0.03828344
N        0.11440283       8.45981585      10.00000000      -0.45147148       0.46686675      -0.05180157
C        1.30792642       9.16224746      10.00000000       0.34340216      -1.11376480       0.00944593
C        1.25803020      10.55216557      10.00000000       0.03523710       0.59817920       0.01456238
C        0.03720704       2.62807678      10.00000000      -0.06648255      -0.15126387       0.00453257
C       -0.01311689       4.01783507      10.00000000       0.62382422      -0.06197099       0.00561573
N        1.17960686       4.71982639      10.00000000       0.01767721      -0.14148922      -0.07984405
C        2.54438514       8.44872938      10.00000000      -1.82651712      -0.87538997      -0.03030485
C        3.77341498       9.09884503      10.00000000      -0.97346421      -1.65236329      -0.00141791
C        3.72607066      10.49363473      10.00000000      -0.07650592       0.23028555       0.00020459
C        2.48403183       2.67372211      10.00000000      -0.07286522       0.01883033       0.01017146
C        2.41500233       4.10756281      10.00000000      -0.11094400      -0.56357314       0.01165139
C        3.63739856       4.86418701      10.00000000      -0.52622575       1.52301212      -0.01827528
C        3.68067784       6.30038185      10.00000000       1.35698211      -0.62921294       0.05456243
C        4.95710118       6.95791183      10.00000000      -1.62706480      -0.38629656      -0.01078851
C        4.99842492       8.37232189      10.00000000       0.81829230       0.23447560      -0.00052585
C        6.25024099       9.03652569      10.00000000      -0.30041685      -0.30368910      -0.00135514
C        6.19948042      10.45238139      10.00000000       0.14973961       0.12605941      -0.00383598
Pt       0.64722720       6.58994552      10.00000000       1.80766418       2.99464362      -0.34882641
H        0.27722720       6.58994552      12.60000000      -0.52071052       0.00346927       0.26561362
H        1.01722720       6.58994552      12.60000000       0.56499125       0.01176872       0.25558491
33
Lattice="9.84 0.0 0.0 4.92 8.521689973238876 0.0 0.0 0.0 20.0" Properties=species:S:1:pos:R:3:forces:R:3 energy=-270.6129316528237 pbc="T T F"
C       -4.90407279       2.72825394      10.00000000      -0.38543848      -0.32666131      -0.00327236
C       -4.95509823       4.14406101      10.00000000      -0.02137370       0.37281751      -0.00131670
C       -3.70324291       4.80768718      10.00000000      -0.02397368       0.23624414      -0.00340987
C       -3.66224620       6.22199923      10.00000000      -0.18083653       0.17619581      -0.00677462
C       -2.38584244       6.87990464      10.00000000      -1.01709769       0.75131758       0.01934922
C       -2.34260280       8.31639578      10.00000000      -0.45897266       0.00314577       0.00689846
C       -1.12011677       9.07272175      10.00000000       0.01998248       0.48043774       0.01675776
C       -1.18885840      10.50678026      10.00000000      -0.02985711       0.00846497       0.00843149
C       -2.43055663       2.68615078      10.00000000      -0.27742953       0.08442250       0.00241452
C       -2.47816054       4.08081684      10.00000000      -0.24294032      -0.27988005       0.05951588
C       -1.24980115       4.73157830      10.00000000      -1.10434796       0.40852032       0.03825349
C       -1.23757445       6.11658101      10.00000000       0.92506017      -0.93548738      -0.51492753
N        0.11440283       8.45981585      10.00000000       0.56243327       1.74450150      -0.41435301
C        1.30792642       9.16224746      10.00000000      -2.31754836       0.10474646       0.01730320
C        1.25803020      10.55216557      10.00000000       0.09644200       0.26201250       0.01261429
C        0.03720704       2.62807678      10.00000000      -0.09910039      -0.33447662       0.06286589
C       -0.01311689       4.01783507      10.00000000       0.87713018      -0.78806273       0.04435793
C        1.17960686       4.71982639      10.00000000      -1.25058112       0.44121707      -0.49461493
N        2.53175081       7.06378150      10.00000000       1.34323698       1.36500934      -0.45403588
C        2.54438514       8.44872938      10.00000000       1.22206521      -1.97491237       0.00631774
C        3.77341498       9.09884503      10.00000000       0.17775585       0.26224218       0.01290002
C        3.72607066      10.49363473      10.00000000       0.20040004      -0.20960094       0.00262987
C        2.48403183       2.67372211      10.00000000       0.21910478      -0.07497618      -0.00664736
C        2.41500233       4.10756281      10.00000000       1.15331727      -0.47917773       0.01976627
C        3.63739856       4.86418701      10.00000000       0.22549590      -0.42128726       0.00619392
C        3.68067784       6.30038185      10.00000000       0.39173889       0.27113329       0.01011480
C        4.95710118       6.95791183      10.00000000       0.03910636      -0.04489430       0.00967611
C        4.99842492       8.37232189      10.00000000      -0.07248060      -0.48516260      -0.00322846
C        6.25024099       9.03652569      10.00000000       0.32649540       0.16483753      -0.00173700
C        6.19948042      10.45238139      10.00000000       0.21089342       0.10372874      -0.00332345
Pt       0.64722720       6.58994552      10.00000000      -0.48298618      -0.86184839       0.50031314
H        0.22222720       6.58994552      12.20000000       1.94538226       0.01320615       0.50440015
H        1.07222720       6.58994552      12.20000000      -1.96524351      -0.03383373       0.55517568
32
Lattice="9.84 0.0 0.0 4.92 8.521689973238876 0.0 0.0 0.0 20.0" Properties=species:S:1:pos:R:3:forces:R:3 energy=-257.2120430484625 pbc="T T F"
C       -4.90407279       2.72825394      10.00000000      -0.61027138      -0.43744885      -0.00074892
C       -4.95509823       4.14406101      10.00000000       0.82974969       0.39633561       0.03663783
C       -3.70324291       4.80768718      10.00000000      -0.18511089       0.37811141       0.00057218
C       -3.66224620       6.22199923      10.00000000       0.28121207      -0.07546548      -0.02438828
C       -2.38584244       6.87990464      10.00000000      -1.35169521       1.64931157       0.04467927
C       -2.34260280       8.31639578      10.00000000      -0.30882545       0.02071035      -0.10507804
C       -1.12011677       9.07272175      10.00000000      -0.03023110       0.46071443       0.03110486
C       -1.18885840      10.50678026      10.00000000      -0.16614503      -0.15088678       0.01224280
C       -2.43055663       2.68615078      10.00000000      -0.00554992      -0.23700949       0.01785414
C       -2.47816054       4.08081684      10.00000000       0.01522245       0.09512895       0.02220456
C       -1.24980115       4.73157830      10.00000000      -0.25743858      -0.92561362      -0.04583790
C       -1.23757445       6.11658101      10.00000000       2.09476438      -0.70007827      -0.09871411
N        0.11440283       8.45981585      10.00000000      -0.75495589       1.11258613      -0.37404407
C        1.30792642       9.16224746      10.00000000      -0.48929273      -1.32927184       0.00768633
C        1.25803020      10.55216557      10.00000000       0.37755097       0.80639943      -0.00388217
C        0.03720704       2.62807678      10.00000000      -0.07065092      -0.47378913       0.08742682
C       -0.01311689       4.01783507      10.00000000      -0.23306146      -0.64566266      -0.00822998
C        1.17960686       4.71982639      10.00000000      -0.24781981       0.83192639      -0.42026172
C        2.54438514       8.44872938      10.00000000      -0.56035289      -1.01582064      -0.06570429
C        3.77341498       9.09884503      10.00000000      -0.77832235      -1.73755351       0.07212567
C        3.72607066      10.49363473      10.00000000      -0.21825685       0.29440353       0.02872335
C        2.48403183       2.67372211      10.00000000       0.10974875      -0.08422621      -0.00139583
C        2.41500233       4.10756281      10.00000000       0.69272806      -0.72223094      -0.05541456
C        3.63739856       4.86418701      10.00000000      -0.85371471       1.57289689      -0.03207745
C        3.68067784       6.30038185      10.00000000       1.65206875      -0.51707695      -0.06018394
C        4.95710118       6.95791183      10.00000000      -1.94548217      -0.15875544       0.04880126
C        4.99842492       8.37232189      10.00000000       0.77152357       0.02313258      -0.02284816
C        6.25024099       9.03652569      10.00000000      -0.17807901      -0.03461951      -0.00106546
C        6.19948042      10.45238139      10.00000000       0.27126353       0.18554884       0.00430571
Pt       0.64722720       6.58994552      10.00000000       1.90551633       1.36969578       2.06102851
H       -0.50277280       6.58994552      12.20000000       1.24596418      -0.04251714      -0.68438350
H        1.79722720       6.58994552      12.20000000      -0.99509826       0.09850264      -0.49773248
33
Lattice="9.84 0.0 0.0 4.92 8.521689973238876 0.0 0.0 0.0 20.0" Properties=species:S:1:pos:R:3:forces:R:3 energy=-272.9728389427353 pbc="T T F"
C       -4.90407279       2.72825394      10.00000000      -0.27311661      -0.19251811       0.00053307
C       -4.95509823       4.14406101      10.00000000      -0.01624312       0.00601643       0.01009781
C       -3.70324291       4.80768718      10.00000000       0.03013443       0.31722039       0.00052942
C       -3.66224620       6.22199923      10.00000000      -0.14688563       0.24898444      -0.01757354
C       -2.38584244       6.87990464      10.00000000      -1.09511472       0.87140412       0.08510763
C       -2.34260280       8.31639578      10.00000000      -0.65272519       0.41691506      -0.00547000
C       -1.12011677       9.07272175      10.00000000      -1.32665593       0.54222631       0.06574751
C       -1.18885840      10.50678026      10.00000000      -0.28508268      -0.00532227      -0.01332535
C       -2.43055663       2.68615078      10.00000000      -0.17114112       0.11270112      -0.01442013
C       -2.47816054       4.08081684      10.00000000      -0.26689809      -0.28984763      -0.02507504
C       -1.24980115       4.73157830      10.00000000      -0.86713727      -0.30884042       0.04517319
C       -1.23757445       6.11658101      10.00000000      -0.71154904      -0.72024691      -0.66613205
C        0.11440283       8.45981585      10.00000000       0.32460817       0.71493581      -0.48451711
C        1.30792642       9.16224746      10.00000000      -0.17432370       0.97182538       0.03717645
C        1.25803020      10.55216557      10.00000000       0.11405314       0.33629769      -0.00189700
C        0.03720704       2.62807678      10.00000000      -0.11743897      -0.34656867      -0.00221952
C       -0.01311689       4.01783507      10.00000000       0.14238152      -0.97536103       0.03722086
C        1.17960686       4.71982639      10.00000000      -0.26710515      -0.69115441      -0.48275929
C        2.53175081       7.06378150      10.00000000       0.73949869       0.70566346      -0.66745212
C        2.54438514       8.44872938      10.00000000       0.88099512       0.30018848       0.04525982
C        3.77341498       9.09884503      10.00000000       0.25460659       0.30223274      -0.02453295
C        3.72607066      10.49363473      10.00000000       0.16743764      -0.11679458      -0.01442660
C        2.48403183       2.67372211      10.00000000       0.29666654       0.00387147      -0.01340736
C        2.41500233       4.10756281      10.00000000       1.31124947      -0.52899101       0.06554361
C        3.63739856       4.86418701      10.00000000       0.65469150      -0.42801564      -0.00545158
C        3.68067784       6.30038185      10.00000000       1.07220993      -0.85614226       0.08496695
C        4.95710118       6.95791183      10.00000000       0.15333836      -0.23995570      -0.01754344
C        4.99842492       8.37232189      10.00000000      -0.02688632      -0.31801769       0.00052009
C        6.25024099       9.03652569      10.00000000       0.00809886      -0.01180658       0.01008887
C        6.19948042      10.45238139      10.00000000       0.25953225       0.18006350       0.00055244
Pt       0.64722720       6.58994552      10.00000000      -0.00367953      -0.00030529      -6.86336196
H        0.27722720       6.58994552      11.40000000      -6.03657644      -0.04450172       4.42199189
H        1.01722720       6.58994552      11.40000000       6.03642184       0.04328691       4.42182153
32
Lattice="9.84 0.0 0.0 4.92 8.521689973238876 0.0 0.0 0.0 20.0" Properties=species:S:1:pos:R:3:forces:R:3 energy=-262.3042566252519 pbc="T T F"
C       -4.90407279       2.72825394      10.00000000      -0.60549118      -0.40471570       0.01434058
C       -4.95509823       4.14406101      10.00000000       0.94320161       0.30563933       0.03951201
C       -3.70324291       4.80768718      10.00000000      -0.19399307       0.42770959      -0.00644995
C       -3.66224620       6.22199923      10.00000000       0.31503278      -0.14596216       0.03701665
C       -2.38584244       6.87990464      10.00000000      -1.26351166       1.46112589       0.11588270
C       -2.34260280       8.31639578      10.00000000      -0.50418501       0.24644594      -0.06463037
C       -1.12011677       9.07272175      10.00000000      -1.53126967       0.66489528       0.08159385
C       -1.18885840      10.50678026      10.00000000      -0.43986376      -0.08585910      -0.00591721
C       -2.43055663       2.68615078      10.00000000      -0.03525135      -0.17870475       0.00179846
C       -2.47816054       4.08081684      10.00000000      -0.02274127       0.14383513       0.07484345
C       -1.24980115       4.73157830      10.00000000      -0.29709527      -0.87252249       0.05682769
C       -1.23757445       6.11658101      10.00000000       1.40218863      -0.49650631      -1.12151018
C        0.11440283       8.45981585      10.00000000      -0.72441838      -0.89919454      -0.63388876
C        1.30792642       9.16224746      10.00000000       0.95935616      -0.97656869       0.00204606
C        1.25803020      10.55216557      10.00000000       0.66336397       1.05445915      -0.04419413
C        0.03720704       2.62807678      10.00000000      -0.04490115      -0.51978474       0.14643512
C       -0.01311689       4.01783507      10.00000000      -0.15811961      -0.67435288       0.02427691
C        1.17960686       4.71982639      10.00000000       0.46895778      -0.20142586      -0.78017916
C        2.54438514       8.44872938      10.00000000      -0.17279188      -0.41760597      -0.06627945
C        3.77341498       9.09884503      10.00000000      -0.76935797      -1.84877450      -0.01894948
C        3.72607066      10.49363473      10.00000000      -0.36478622       0.43070586       0.01471868
C        2.48403183       2.67372211      10.00000000       0.25219668      -0.04922028      -0.01448361
C        2.41500233       4.10756281      10.00000000       0.42738285      -0.91594928      -0.00481895
C        3.63739856       4.86418701      10.00000000      -0.82557733       1.66526188      -0.02029828
C        3.68067784       6.30038185      10.00000000       1.74009543      -0.61854478      -0.09691989
C        4.95710118       6.95791183      10.00000000      -1.93597006      -0.27051599       0.00521946
C        4.99842492       8.37232189      10.00000000       0.79814627      -0.08179302      -0.00958741
C        6.25024099       9.03652569      10.00000000      -0.32781038      -0.05798992       0.01094376
C        6.19948042      10.45238139      10.00000000       0.35597353       0.23286513       0.00493641
Pt       0.64722720       6.58994552      10.00000000       1.24328496       3.02910594       3.38861843
H       -0.05277280       6.58994552      11.80000000       2.58699155       0.17065329      -0.77066761
H        1.34722720       6.58994552      11.80000000      -1.93253459      -0.11400746      -0.36208354
32
Lattice="9.84 0.0 0.0 4.92 8.521689973238876 0.0 0.0 0.0 20.0" Properties=species:S:1:pos:R:3:forces:R:3 energy=-264.7067930376006 pbc="T T F"
C       -4.90407279       2.72825394      10.00000000      -0.65658737      -0.41438871       0.00031002
C       -4.95509823       4.14406101      10.00000000       0.88699323       0.32214731       0.00091850
C       -3.70324291       4.80768718      10.00000000      -0.17955249       0.47915192       0.00000790
C       -3.66224620       6.22199923      10.00000000       0.30763338      -0.14972654       0.00132098
C       -2.38584244       6.87990464      10.00000000      -1.30170680       1.28555335       0.00141073
C       -2.34260280       8.31639578      10.00000000      -0.39900950       0.27735813      -0.00108574
C       -1.12011677       9.07272175      10.00000000      -1.49749544       0.83930977       0.00054253
C       -1.18885840      10.50678026      10.00000000      -0.46955826      -0.13506769       0.00045454
C       -2.43055663       2.68615078      10.00000000      -0.09848627      -0.13075113       0.00070687
C       -2.47816054       4.08081684      10.00000000      -0.05916274       0.11843985       0.00377266
C       -1.24980115       4.73157830      10.00000000      -0.54972833      -0.48237190      -0.00139321
C       -1.23757445       6.11658101      10.00000000       2.53132938      -0.28024531      -0.03050290
C        0.11440283       8.45981585      10.00000000      -0.50801044      -1.36424466      -0.02448642
C        1.30792642       9.16224746      10.00000000       0.65378324      -0.88468205      -0.00178808
C        1.25803020      10.55216557      10.00000000       0.69359347       1.10552752      -0.00025342
C        0.03720704       2.62807678      10.00000000      -0.09301831      -0.57250188       0.00351785
C       -0.01311689       4.01783507      10.00000000       0.16689879      -0.66945423      -0.00201721
C        1.17960686       4.71982639      10.00000000       0.42276667       0.19643312      -0.03203240
C        2.54438514       8.44872938      10.00000000      -0.25013959      -0.98453833      -0.00235704
C        3.77341498       9.09884503      10.00000000      -0.65369157      -1.71144907      -0.00018706
C        3.72607066      10.49363473      10.00000000      -0.37112951       0.38689392       0.00061765
C        2.48403183       2.67372211      10.00000000       0.30701031       0.03956039       0.00132472
C        2.41500233       4.10756281      10.00000000       0.39961183      -1.04583774       0.00000654
C        3.63739856       4.86418701      10.00000000      -0.83559234       1.67184263      -0.00126771
C        3.68067784       6.30038185      10.00000000       1.59540853      -0.52889649      -0.00221491
C        4.95710118       6.95791183      10.00000000      -1.94932590      -0.27528214       0.00014181
C        4.99842492       8.37232189      10.00000000       0.75889278      -0.19739238      -0.00015368
C        6.25024099       9.03652569      10.00000000      -0.32495520      -0.07594208       0.00014314
C        6.19948042      10.45238139      10.00000000       0.47175861       0.29720948       0.00024577
Pt       0.64722720       6.58994552      10.00000000       0.99951720       2.88228686      -0.04077550
H        0.64722720       6.58994552      12.60000000      -0.00230560      -0.00615763      -0.65748587
H        0.64722720       6.58994552      13.34000000       0.01108993       0.00830404       0.78266897
33
Lattice="9.84 0.0 0.0 4.92 8.521689973238876 0.0 0.0 0.0 20.0" Properties=species:S:1:pos:R:3:forces:R:3 energy=-271.2658973136689 pbc="T T F"
C       -4.90407279       2.72825394      10.00000000      -0.38657179      -0.32184648      -0.00017414
C       -4.95509823       4.14406101      10.00000000      -0.01946693       0.35875289       0.00017011
C       -3.70324291       4.80768718      10.00000000      -0.01657907       0.24254148      -0.00007838
C       -3.66224620       6.22199923      10.00000000      -0.16912486       0.19877007       0.00032161
C       -2.38584244       6.87990464      10.00000000      -1.02166203       0.74407241      -0.00022098
C       -2.34260280       8.31639578      10.00000000      -0.45603552       0.00522732      -0.00014904
C       -1.12011677       9.07272175      10.00000000       0.03603717       0.49331286       0.00028195
C       -1.18885840      10.50678026      10.00000000      -0.04001715      -0.01124531       0.00036852
C       -2.43055663       2.68615078      10.00000000      -0.27669342       0.09953667       0.00022636
C       -2.47816054       4.08081684      10.00000000      -0.27314858      -0.30319230       0.00010514
C       -1.24980115       4.73157830      10.00000000      -1.10428950       0.44487410      -0.00101250
C       -1.23757445       6.11658101      10.00000000       1.13164185      -0.80929123      -0.00049695
N        0.11440283       8.45981585      10.00000000       0.54678205       1.56622305      -0.00256999
C        1.30792642       9.16224746      10.00000000      -2.29885352       0.11132732      -0.00027183
C        1.25803020      10.55216557      10.00000000       0.08537873       0.25714371       0.00021976
C        0.03720704       2.62807678      10.00000000      -0.10239548      -0.36882626       0.00010506
C       -0.01311689       4.01783507      10.00000000       0.89795739      -0.78202699      -0.00100989
C        1.17960686       4.71982639      10.00000000      -1.23620202       0.63023448      -0.00048764
N        2.53175081       7.06378150      10.00000000       1.14529256       1.23159095      -0.00261178
C        2.54438514       8.44872938      10.00000000       1.22174332      -1.97002241      -0.00028353
C        3.77341498       9.09884503      10.00000000       0.18204132       0.25267816       0.00021405
C        3.72607066      10.49363473      10.00000000       0.21398039      -0.20419854       0.00022717
C        2.48403183       2.67372211      10.00000000       0.22836856      -0.05685416       0.00031878
C        2.41500233       4.10756281      10.00000000       1.16771402      -0.48834100      -0.00022363
C        3.63739856       4.86418701      10.00000000       0.22132165      -0.42633908      -0.00014931
C        3.68067784       6.30038185      10.00000000       0.38427914       0.31993408       0.00028317
C        4.95710118       6.95791183      10.00000000       0.02885338      -0.07027565       0.00035743
C        4.99842492       8.37232189      10.00000000      -0.07093812      -0.47964960      -0.00017203
C        6.25024099       9.03652569      10.00000000       0.31316966       0.15834217       0.00017554
C        6.19948042      10.45238139      10.00000000       0.21238935       0.11296349      -0.00008106
Pt       0.64722720       6.58994552      10.00000000      -0.53695768      -0.92856492       0.00796805
H        0.64722720       6.58994552      13.20000000      -0.00575181      -0.00992076      -0.58430416
H        0.64722720       6.58994552      13.94000000       0.00349503       0.00609143       0.58549069
31
Lattice="9.84 0.0 0.0 4.92 8.521689973238876 0.0 0.0 0.0 20.0" Properties=species:S:1:pos:R:3:forces:R:3 energy=-257.98659624447754 pbc="T T F"
C       -4.87426994       2.71995808      10.03886131      -2.13334368      -0.37440009      -1.65417558
C       -4.86371644       4.13001181       9.98595178      -2.53149937       2.96095224      -0.76292510
C       -3.60849014       4.85373326       9.97183154      -3.35055667      -5.60103766       0.11868445
C       -3.62969260       6.19419417       9.97205621      -1.65528419       0.85223223      -0.30206021
C       -2.37132470       6.76510783       9.89650493      -8.09661714      10.84232227       0.68196900
C       -2.37634005       8.25562591      10.01885484      -0.78516678      -0.94330829      -0.13677781
C       -1.17459821       8.98798353      10.08793893       2.33091957       2.33718087      -2.20726991
C       -1.20240498      10.51083195       9.91451511       0.51140173      -0.85544616       2.22735932
C       -2.46321959       2.69280614       9.93094039       0.19763859      -0.39035884       0.72735904
C       -2.45561866       4.04477852       9.98249838       0.15263737       4.44602560      -0.10077486
C       -1.28590355       4.84271499       9.99919017       1.83575606      -8.06281246      -0.05426969
C       -1.30103711       6.16593370       9.92674938      10.52047850      -4.01330002       0.19368026
N        0.12693465       8.34223564       9.92030884      -0.81676026       9.06558634       1.40123633
C        1.31973809       9.20655545      10.01028210      -3.77799456      -4.57613725      -0.46344129
C        1.25109130      10.53409935       9.91128868      -0.33085060       2.18045121       0.92556670
C       -0.00598361       2.60043845      10.06342733       1.75614829      -3.45159808       0.05198187
C        0.00750021       3.91205266      10.01944504      -1.63910850       7.44988043       0.23277651
C        1.15650192       4.67921107      10.03670058      -1.65203411       2.14434075       0.10380585
N        2.59361078       7.11965831       9.94964695      -1.24528258      -0.06592364       0.76602840
C        2.52583240       8.46860519      10.05853271       2.41029291      -1.93220337      -1.29577719
C        3.74466453       9.08770549       9.93361990       1.40650043       4.00100495       1.65573963
C        3.65429826      10.54238628      10.08137440       2.12421433      -4.53912867      -1.55597540
C        2.47971122       2.73393408      10.02169816       0.35383423      -3.75429492      -0.14998097
C        2.37629514       4.12924655      10.09228219       4.21887817       1.07932615      -1.82370405
C        3.63524900       4.95806563       9.84281529       0.78619647      -6.84976423       2.42563277
C        3.72999199       6.30560467       9.98205956      -2.40452370       1.39567200      -0.70105068
C        4.96260683       6.83865770       9.98681969       3.32395433       7.31118240      -0.03516032
C        5.01985167       8.46099553       9.96890379      -5.58696754      -7.66648391      -0.09004066
C        6.20173137       9.00642027      10.05492413       5.76411970       2.41143472      -0.37360605
C        6.21920549      10.42059578      10.03079605      -1.19632560       2.04302410       0.57438204
Pt       0.65305185       6.64806422       9.95787681      -0.48258891      -7.43760129      -0.19889887
33
Lattice="9.84 0.0 0.0 4.92 8.521689973238876 0.0 0.0 0.0 20.0" Properties=species:S:1:pos:R:3:forces:R:3 energy=-271.3720251627793 pbc="T T F"
C       -4.90407279       2.72825394      10.00000000      -0.32040289      -0.19921656      -0.00006175
C       -4.95509823       4.14406101      10.00000000       0.04609748       0.15974522      -0.00404158
C       -3.70324291       4.80768718      10.00000000       0.00736957       0.27270962      -0.00205164
C       -3.66224620       6.22199923      10.00000000      -0.09758683       0.13192184       0.00638342
C       -2.38584244       6.87990464      10.00000000      -1.15706002       0.99617426       0.05486733
C       -2.34260280       8.31639578      10.00000000      -0.57493422       0.32148698      -0.01746099
C       -1.12011677       9.07272175      10.00000000      -1.36775337       0.77457112       0.06361106
C       -1.18885840      10.50678026      10.00000000      -0.31698725      -0.07618293       0.00064028
C       -2.43055663       2.68615078      10.00000000      -0.21386917       0.13208043       0.00337672
C       -2.47816054       4.08081684      10.00000000      -0.22595926      -0.24391030       0.06236432
C       -1.24980115       4.73157830      10.00000000      -0.79829739      -0.29089267       0.02915560
C       -1.23757445       6.11658101      10.00000000       0.95839004      -0.39169564      -0.60917588
C        0.11440283       8.45981585      10.00000000       0.35785252      -0.19259939      -0.54494002
C        1.30792642       9.16224746      10.00000000      -0.28825816       0.44102868       0.00991348
C        1.25803020      10.55216557      10.00000000       0.31469351       0.33604898       0.02104549
C        0.03720704       2.62807678      10.00000000      -0.15486212      -0.30742250       0.02476116
C       -0.01311689       4.01783507      10.00000000       0.09508657      -0.95703600       0.02218811
C        1.17960686       4.71982639      10.00000000      -0.43886340      -0.00997900      -0.51342082
N        2.53175081       7.06378150      10.00000000       1.73902702       1.28228338      -0.56476971
C        2.54438514       8.44872938      10.00000000       1.22231455      -1.00060332      -0.01236952
C        3.77341498       9.09884503      10.00000000       0.23492369       0.01143852       0.04564009
C        3.72607066      10.49363473      10.00000000      -0.04620204      -0.06839954       0.00720303
C        2.48403183       2.67372211      10.00000000       0.41941651       0.09162111      -0.01711859
C        2.41500233       4.10756281      10.00000000       1.33843841      -0.70972316       0.05352611
C        3.63739856       4.86418701      10.00000000       0.16271797      -0.36207268      -0.00190336
C        3.68067784       6.30038185      10.00000000       0.35448033       0.29194688       0.02879686
C        4.95710118       6.95791183      10.00000000      -0.02977239      -0.05381115       0.01478511
C        4.99842492       8.37232189      10.00000000      -0.05951284      -0.45884464      -0.00189235
C        6.25024099       9.03652569      10.00000000       0.08747545       0.04222910       0.00011041
C        6.19948042      10.45238139      10.00000000       0.26669592       0.15694305       0.00179468
Pt       0.64722720       6.58994552      10.00000000      -1.45954905      -0.07986330      -6.80832788
H        0.64722720       6.58994552      11.40000000      -0.05655492      -0.02145613       4.66834414
H        0.64722720       6.58994552      12.14000000       0.00903143      -0.01894764       3.97206145
33
Lattice="9.84 0.0 0.0 4.92 8.521689973238876 0.0 0.0 0.0 20.0" Properties=species:S:1:pos:R:3:forces:R:3 energy=-263.93281781271514 pbc="T T F"
C       -4.90407279       2.72825394      10.00000000      -0.12527501      -0.15931059      -0.00044146
C       -4.95509823       4.14406101      10.00000000      -0.24310269      -0.06270533      -0.00346339
C       -3.70324291       4.80768718      10.00000000       0.09575101       0.20804185       0.01017983
C       -3.66224620       6.22199923      10.00000000       0.05572961       0.17632807      -0.00666686
C       -2.38584244       6.87990464      10.00000000      -0.34787570      -0.26321155      -0.05782904
C       -2.34260280       8.31639578      10.00000000       0.08891326       0.01348605      -0.00089870
C       -1.12011677       9.07272175      10.00000000      -0.00781072       0.07662958       0.03653379
C       -1.18885840      10.50678026      10.00000000       0.09428826       0.00102021      -0.00108814
C       -2.43055663       2.68615078      10.00000000       0.01771462       0.00081348       0.01011130
C       -2.47816054       4.08081684      10.00000000      -0.18206393      -0.09189578       0.01982818
C       -1.24980115       4.73157830      10.00000000      -0.55762783       1.02969956      -0.08814258
N       -1.23757445       6.11658101      10.00000000      -1.50700433      -0.94747286      -0.62258171
N        0.11440283       8.45981585      10.00000000       0.67974316       0.97645822      -0.59071422
C        1.30792642       9.16224746      10.00000000      -0.89404965       0.39821482       0.00192826
C        1.25803020      10.55216557      10.00000000      -0.22424024       0.08968950       0.09082763
C        0.03720704       2.62807678      10.00000000      -0.01002273      -0.10443886       0.04872401
C       -0.01311689       4.01783507      10.00000000       1.04081994       0.02319518       0.04296177
N        1.17960686       4.71982639      10.00000000      -0.56242308      -0.34984334      -0.62262607
C        2.53175081       7.06378150      10.00000000      -1.21834779       0.35159392      -0.24336676
C        2.54438514       8.44872938      10.00000000       0.06617053       0.27726873      -0.05459276
C        3.77341498       9.09884503      10.00000000       0.02548785       0.35229555       0.02728116
C        3.72607066      10.49363473      10.00000000       0.20949792      -0.04949790       0.01125064
C        2.48403183       2.67372211      10.00000000      -0.11686466       0.03407751       0.02372672
C        2.41500233       4.10756281      10.00000000       0.35425896      -0.18560328       0.07487850
C        3.63739856       4.86418701      10.00000000       0.35905744      -0.19423918      -0.07212748
C        3.68067784       6.30038185      10.00000000       1.18552389      -1.08721228       0.03040638
C        4.95710118       6.95791183      10.00000000       0.13110628      -0.14915814      -0.04056076
C        4.99842492       8.37232189      10.00000000       0.05115633      -0.14776385       0.00847633
C        6.25024099       9.03652569      10.00000000       0.01497930      -0.14163697      -0.00827952
C        6.19948042      10.45238139      10.00000000       0.16457607       0.14384187      -0.00612027
Pt       0.64722720       6.58994552      10.00000000       1.32893224      -0.31114188       3.00017108
H       -0.50277280       6.58994552      12.20000000       0.80600096       0.08444255      -0.27571002
H        1.79722720       6.58994552      12.20000000      -0.76409552       0.01129103      -0.82871769
32
Lattice="9.84 0.0 0.0 4.92 8.521689973238876 0.0 0.0 0.0 20.0" Properties=species:S:1:pos:R:3:forces:R:3 energy=-261.9802737678841 pbc="T T F"
C       -4.90407279       2.72825394      10.00000000      -0.62636612      -0.42436581      -0.00013479
C       -4.95509823       4.14406101      10.00000000       0.80623071       0.37751494       0.00080147
C       -3.70324291       4.80768718      10.00000000      -0.16748795       0.42890154       0.00017899
C       -3.66224620       6.22199923      10.00000000       0.26997330      -0.09211417       0.00135346
C       -2.38584244       6.87990464      10.00000000      -1.09049847       1.32517428       0.00016805
C       -2.34260280       8.31639578      10.00000000      -0.26551252       0.15800360      -0.00005296
C       -1.12011677       9.07272175      10.00000000      -0.03792242       0.49693448       0.00041959
C       -1.18885840      10.50678026      10.00000000      -0.19935098      -0.19173602       0.00097001
C       -2.43055663       2.68615078      10.00000000      -0.01737604      -0.21968254       0.00070637
C       -2.47816054       4.08081684      10.00000000      -0.06076437       0.06529784       0.00403631
C       -1.24980115       4.73157830      10.00000000      -0.40437827      -0.45431635      -0.00258287
C       -1.23757445       6.11658101      10.00000000       2.29961808      -0.70724521      -0.03033561
N        0.11440283       8.45981585      10.00000000      -0.71379215       0.99482271      -0.02406582
C        1.30792642       9.16224746      10.00000000      -0.55639034      -1.39284948      -0.00151870
C        1.25803020      10.55216557      10.00000000       0.36541247       0.85321044       0.00024760
C        0.03720704       2.62807678      10.00000000      -0.09335161      -0.47520451       0.00314262
C       -0.01311689       4.01783507      10.00000000       0.06434607      -0.72713692      -0.00002430
C        1.17960686       4.71982639      10.00000000      -0.27083186       0.87268569      -0.02909442
C        2.54438514       8.44872938      10.00000000      -0.58127193      -1.23837515      -0.00025785
C        3.77341498       9.09884503      10.00000000      -0.73369156      -1.65122929      -0.00004190
C        3.72607066      10.49363473      10.00000000      -0.16077518       0.22434579       0.00012177
C        2.48403183       2.67372211      10.00000000       0.14773559      -0.07722960       0.00203464
C        2.41500233       4.10756281      10.00000000       0.57496421      -0.78894298      -0.00005777
C        3.63739856       4.86418701      10.00000000      -0.77415433       1.69098354      -0.00138816
C        3.68067784       6.30038185      10.00000000       1.65584729      -0.45868635      -0.00170989
C        4.95710118       6.95791183      10.00000000      -1.97899565      -0.26693654       0.00031024
C        4.99842492       8.37232189      10.00000000       0.76552678       0.07972192      -0.00051180
C        6.25024099       9.03652569      10.00000000      -0.18822908      -0.07716282      -0.00004937
C        6.19948042      10.45238139      10.00000000       0.28544050       0.21588481      -0.00000659
Pt       0.64722720       6.58994552      10.00000000       1.67612575       1.46525044      -0.05641679
H        0.64722720       6.58994552      12.60000000       0.00191985      -0.01345751      -0.64535739
H        0.64722720       6.58994552      13.34000000       0.01032654       0.01264941       0.78218167
32
Lattice="9.84 0.0 0.0 4.92 8.521689973238876 0.0 0.0 0.0 20.0" Properties=species:S:1:pos:R:3:forces:R:3 energy=-251.77004278436482 pbc="T T F"
C       -4.90407279       2.72825394      10.00000000      -0.28222616      -0.22001261      -0.00234421
C       -4.95509823       4.14406101      10.00000000       0.39715070      -0.07627940      -0.02647279
C       -3.70324291       4.80768718      10.00000000      -0.04030050       0.27369256       0.01257242
C       -3.66224620       6.22199923      10.00000000       0.48536054       0.01907727       0.01604678
C       -2.38584244       6.87990464      10.00000000      -0.38497602       0.15774172      -0.09233211
C       -2.34260280       8.31639578      10.00000000       0.12490871       0.10187348       0.03537745
C       -1.12011677       9.07272175      10.00000000       0.06298804      -0.17353537      -0.03839540
C       -1.18885840      10.50678026      10.00000000      -0.07087603      -0.04747091      -0.02549573
C       -2.43055663       2.68615078      10.00000000       0.12432111      -0.16944148       0.01876650
C       -2.47816054       4.08081684      10.00000000      -0.07090485       0.10149175       0.09611709
C       -1.24980115       4.73157830      10.00000000      -0.29065215       0.56526802      -0.18487003
N       -1.23757445       6.11658101      10.00000000      -1.39404245      -1.48036935      -1.26991878
N        0.11440283       8.45981585      10.00000000      -0.30222573       1.25179630      -0.37612098
C        1.30792642       9.16224746      10.00000000      -0.00348746      -1.18231254       0.04417665
C        1.25803020      10.55216557      10.00000000       0.05761658       0.51509576       0.04955024
C        0.03720704       2.62807678      10.00000000      -0.03965508      -0.21692017       0.05009962
C       -0.01311689       4.01783507      10.00000000       0.69021865       0.01793770       0.03728417
N        1.17960686       4.71982639      10.00000000      -0.01886535      -0.49449285      -0.82008842
C        2.54438514       8.44872938      10.00000000      -1.55735693      -0.97812404      -0.34804036
C        3.77341498       9.09884503      10.00000000      -0.82626166      -1.74002898       0.03280176
C        3.72607066      10.49363473      10.00000000      -0.12980907       0.22980582       0.00559485
C        2.48403183       2.67372211      10.00000000      -0.14342246      -0.08562688       0.08765172
C        2.41500233       4.10756281      10.00000000      -0.04790043      -0.42997318       0.13056208
C        3.63739856       4.86418701      10.00000000      -0.60148043       1.48506992      -0.12958050
C        3.68067784       6.30038185      10.00000000       1.74661868      -0.22590649      -0.00479308
C        4.95710118       6.95791183      10.00000000      -1.56353611      -0.49020631      -0.03472080
C        4.99842492       8.37232189      10.00000000       0.74803190       0.28768186      -0.02363014
C        6.25024099       9.03652569      10.00000000      -0.29684154      -0.30419907      -0.01032582
C        6.19948042      10.45238139      10.00000000       0.22387631       0.16720315      -0.00706741
Pt       0.64722720       6.58994552      10.00000000       2.60772294       2.70247468       4.33276174
H       -0.25277280       6.58994552      11.80000000       1.91619785       0.13948255      -0.62093018
H        1.54722720       6.58994552      11.80000000      -1.11153159       0.29977212      -0.92774909
32
Lattice="9.84 0.0 0.0 4.92 8.521689973238876 0.0 0.0 0.0 20.0" Properties=species:S:1:pos:R:3:forces:R:3 energy=-259.48601189038095 pbc="T T F"
C       -4.90407279       2.72825394      10.00000000      -0.58787655      -0.40856183       0.00056238
C       -4.95509823       4.14406101      10.00000000       0.80085183       0.34623750       0.06259844
C       -3.70324291       4.80768718      10.00000000      -0.14193852       0.38695658      -0.00633188
C       -3.66224620       6.22199923      10.00000000       0.27121276      -0.12077642       0.00405489
C       -2.38584244       6.87990464      10.00000000      -0.96140870       1.34828413       0.08584956
C       -2.34260280       8.31639578      10.00000000      -0.22533170       0.34682408      -0.02092811
C       -1.12011677       9.07272175      10.00000000      -0.27305754       0.34359549       0.02633589
C       -1.18885840      10.50678026      10.00000000      -0.16990424      -0.17815306       0.01150813
C       -2.43055663       2.68615078      10.00000000       0.02893666      -0.25283841       0.00914198
C       -2.47816054       4.08081684      10.00000000      -0.06568154       0.09189179       0.07170803
C       -1.24980115       4.73157830      10.00000000      -0.23593387      -0.68169957       0.02944725
C       -1.23757445       6.11658101      10.00000000       1.00810562      -1.01578158      -0.98025299
N        0.11440283       8.45981585      10.00000000      -0.78152979       1.57717916      -0.56924030
C        1.30792642       9.16224746      10.00000000      -0.40998593      -1.46061234      -0.04227166
C        1.25803020      10.55216557      10.00000000       0.36114341       0.78792654      -0.04676903
C        0.03720704       2.62807678      10.00000000      -0.05288135      -0.41733551       0.12971337
C       -0.01311689       4.01783507      10.00000000      -0.04465076      -0.66788018       0.05046659
C        1.17960686       4.71982639      10.00000000      -0.37955172       0.25543709      -0.69341048
C        2.54438514       8.44872938      10.00000000      -0.61064828      -0.83529978       0.00948691
C        3.77341498       9.09884503      10.00000000      -0.74273133      -1.77453956      -0.00471240
C        3.72607066      10.49363473      10.00000000      -0.18673103       0.25991783       0.00129572
C        2.48403183       2.67372211      10.00000000       0.05233806      -0.16716392      -0.00603964
C        2.41500233       4.10756281      10.00000000       0.71255767      -0.62378018      -0.02546519
C        3.63739856       4.86418701      10.00000000      -0.81758271       1.55071705      -0.00054024
C        3.68067784       6.30038185      10.00000000       1.73630890      -0.49821525      -0.17078160
C        4.95710118       6.95791183      10.00000000      -1.98823395      -0.21256171       0.01241031
C        4.99842492       8.37232189      10.00000000       0.77337134       0.17118833      -0.01019661
C        6.25024099       9.03652569      10.00000000      -0.15119143      -0.06820902       0.00466698
C        6.19948042      10.45238139      10.00000000       0.25029961       0.18250072       0.00170951
Pt       0.64722720       6.58994552      10.00000000       2.12381232       1.67701813       3.00845263
H       -0.05277280       6.58994552      11.80000000       2.67978987       0.02089464      -0.70557247
H        1.34722720       6.58994552      11.80000000      -1.97253320       0.03301771      -0.25423851
32
Lattice="9.84 0.0 0.0 4.92 8.521689973238876 0.0 0.0 0.0 20.0" Properties=species:S:1:pos:R:3:forces:R:3 energy=-258.60169163644497 pbc="T T F"
C       -4.90407279       2.72825394      10.00000000      -0.53717265      -0.41920679      -0.00015397
C       -4.95509823       4.14406101      10.00000000       0.76034795       0.28789900       0.00398924
C       -3.70324291       4.80768718      10.00000000      -0.10504576       0.44198624      -0.00056409
C       -3.66224620       6.22199923      10.00000000       0.41035094      -0.24908262       0.00536084
C       -2.38584244       6.87990464      10.00000000      -0.11984593       0.51109839      -0.00336743
C       -2.34260280       8.31639578      10.00000000       0.06793373       0.03044595       0.00327078
C       -1.12011677       9.07272175      10.00000000       0.24049375       0.17995914      -0.00204558
C       -1.18885840      10.50678026      10.00000000      -0.28936474      -0.19284753       0.00197803
C       -2.43055663       2.68615078      10.00000000       0.23577180      -0.30718638       0.00169791
C       -2.47816054       4.08081684      10.00000000      -0.05859315       0.38813499       0.01245907
C       -1.24980115       4.73157830      10.00000000      -0.51472029       0.31004912      -0.00540619
N       -1.23757445       6.11658101      10.00000000       0.46393166      -1.34091220      -0.09899669
N        0.11440283       8.45981585      10.00000000      -0.95709697       1.45447368      -0.05824651
C        1.30792642       9.16224746      10.00000000      -0.23555606      -1.66096711      -0.00632230
C        1.25803020      10.55216557      10.00000000       0.33365397       0.84838750      -0.00136585
C        0.03720704       2.62807678      10.00000000      -0.25004427      -0.42281516       0.00562538
C       -0.01311689       4.01783507      10.00000000      -0.17734958      -0.24596439       0.00430958
C        1.17960686       4.71982639      10.00000000      -0.36420495       1.13384538      -0.08708224
C        2.54438514       8.44872938      10.00000000      -0.93755381      -0.82079654      -0.00233493
C        3.77341498       9.09884503      10.00000000      -0.78977076      -1.90676260       0.00114046
C        3.72607066      10.49363473      10.00000000      -0.11723796       0.16207292      -0.00046498
C        2.48403183       2.67372211      10.00000000       0.12733539      -0.14468112       0.00442075
C        2.41500233       4.10756281      10.00000000       0.68190657      -0.73934150       0.00143312
C        3.63739856       4.86418701      10.00000000      -0.73002887       1.71617958      -0.00008837
C        3.68067784       6.30038185      10.00000000       1.46815560      -0.61982907      -0.01740068
C        4.95710118       6.95791183      10.00000000      -1.90317657      -0.01119331       0.00159449
C        4.99842492       8.37232189      10.00000000       0.81553169       0.31898568      -0.00187291
C        6.25024099       9.03652569      10.00000000      -0.30049986      -0.28274722       0.00033822
C        6.19948042      10.45238139      10.00000000       0.20338580       0.16733328       0.00007352
Pt       0.64722720       6.58994552      10.00000000       2.54412705       1.40168768      -0.23789355
H        0.64722720       6.58994552      12.20000000       0.02503372      -0.01453995      -0.71538772
H        0.64722720       6.58994552      12.94000000       0.01670871       0.02467741       1.18911948
33
Lattice="9.84 0.0 0.0 4.92 8.521689973238876 0.0 0.0 0.0 20.0" Properties=species:S:1:pos:R:3:forces:R:3 energy=-266.0541281930674 pbc="T T F"
C       -4.90407279       2.72825394      10.00000000       0.00273436      -0.01970557      -0.00001769
C       -4.95509823       4.14406101      10.00000000      -0.00771007       0.00350413       0.00006492
C       -3.70324291       4.80768718      10.00000000       0.00640699      -0.00962387       0.00008022
C       -3.66224620       6.22199923      10.00000000      -0.01345546       0.03388366       0.00040249
C       -2.38584244       6.87990464      10.00000000       0.00485737      -0.01667311      -0.00059906
C       -2.34260280       8.31639578      10.00000000      -0.00862065       0.01864329       0.00089175
C       -1.12011677       9.07272175      10.00000000      -0.00326541      -0.00874900       0.00005265
C       -1.18885840      10.50678026      10.00000000       0.00284755       0.00374346       0.00037324
C       -2.43055663       2.68615078      10.00000000      -0.00435290       0.00922640       0.00002441
C       -2.47816054       4.08081684      10.00000000       0.00707411       0.00877635       0.00014312
C       -1.24980115       4.73157830      10.00000000       0.03122112       0.00524851       0.00088388
N       -1.23757445       6.11658101      10.00000000      -0.01983884      -0.00031508       0.00144201
N        0.11440283       8.45981585      10.00000000       0.01408905      -0.00438265       0.00018002
C        1.30792642       9.16224746      10.00000000       0.01441646       0.01381706       0.00087826
C        1.25803020      10.55216557      10.00000000      -0.03092893      -0.03955137       0.00011802
C        0.03720704       2.62807678      10.00000000       0.02709115       0.03002540       0.00012485
C       -0.01311689       4.01783507      10.00000000      -0.04349673      -0.01715293       0.00088520
N        1.17960686       4.71982639      10.00000000       0.04007029       0.03237512       0.00023395
N        2.53175081       7.06378150      10.00000000       0.04665880      -0.01787534       0.00143342
C        2.54438514       8.44872938      10.00000000      -0.01905030      -0.01329206       0.00087981
C        3.77341498       9.09884503      10.00000000      -0.01874528       0.00258397       0.00015043
C        3.72607066      10.49363473      10.00000000      -0.00073636      -0.01265509       0.00002627
C        2.48403183       2.67372211      10.00000000       0.00809723      -0.00533526       0.00037019
C        2.41500233       4.10756281      10.00000000      -0.00999309       0.01942339       0.00003984
C        3.63739856       4.86418701      10.00000000       0.01071672      -0.02954148       0.00089258
C        3.68067784       6.30038185      10.00000000      -0.02742123       0.03071579      -0.00060320
C        4.95710118       6.95791183      10.00000000       0.01976106      -0.02441563       0.00040344
C        4.99842492       8.37232189      10.00000000      -0.00328572       0.00894233       0.00007746
C        6.25024099       9.03652569      10.00000000      -0.00053042      -0.00932963       0.00006590
C        6.19948042      10.45238139      10.00000000      -0.01627227       0.00782715      -0.00001930
Pt       0.64722720       6.58994552      10.00000000      -0.00250191      -0.00023578      -0.00812936
H        0.27722720       6.58994552      14.00000000      -0.49797994       0.00060971       0.00329417
H        1.01722720       6.58994552      14.00000000       0.49793812      -0.00065159       0.00329673
32
Lattice="9.84 0.0 0.0 4.92 8.521689973238876 0.0 0.0 0.0 20.0" Properties=species:S:1:pos:R:3:forces:R:3 energy=-254.82782095594905 pbc="T T F"
C       -4.90407279       2.72825394      10.00000000      -0.33149020      -0.28963093       0.04094887
C       -4.95509823       4.14406101      10.00000000       0.60689910       0.22786452       0.10518889
C       -3.70324291       4.80768718      10.00000000      -0.35460467       0.00640605       0.03517419
C       -3.66224620       6.22199923      10.00000000       0.91861939       0.32518602      -0.07728637
C       -2.38584244       6.87990464      10.00000000      -4.32338765       2.53868011      -1.45827099
C       -2.34260280       8.31639578      10.00000000       0.18329604      -0.77277843       0.03788391
C       -1.12011677       9.07272175      10.00000000       0.47121394       0.39603424      -0.01623981
C       -1.18885840      10.50678026      10.00000000      -0.25343967      -0.11987291      -0.06385913
C       -2.43055663       2.68615078      10.00000000       0.10414516      -0.30655357       0.06176048
C       -2.47816054       4.08081684      10.00000000       0.38816223       0.49371977      -0.00604464
C       -1.24980115       4.73157830      10.00000000      -0.88276680      -4.04064617      -1.38921982
N       -1.23757445       6.11658101      10.00000000      -0.35148901      -0.88330685       2.78216140
N        0.11440283       8.45981585      10.00000000      -0.89882265       1.76140643      -0.08497782
C        1.30792642       9.16224746      10.00000000       0.01110326      -0.95316533      -0.09663162
C        1.25803020      10.55216557      10.00000000       0.12067831       0.62645067      -0.14734414
C        0.03720704       2.62807678      10.00000000      -0.31030464      -0.58391922       0.02788547
C       -0.01311689       4.01783507      10.00000000      -0.88108338       0.30046579      -0.02989217
C        1.17960686       4.71982639      10.00000000       0.03129370       1.31034016      -0.17659259
C        2.54438514       8.44872938      10.00000000      -1.69953786      -1.37704099       0.09369102
C        3.77341498       9.09884503      10.00000000      -0.81039399      -1.83609597       0.09626509
C        3.72607066      10.49363473      10.00000000      -0.11607927       0.22634657       0.01189629
C        2.48403183       2.67372211      10.00000000       0.19391160      -0.01461088      -0.05249918
C        2.41500233       4.10756281      10.00000000       0.96885229      -0.62131037       0.00540724
C        3.63739856       4.86418701      10.00000000      -0.31349473       1.43069292       0.07417610
C        3.68067784       6.30038185      10.00000000       2.18414836      -0.35320306      -0.52046666
C        4.95710118       6.95791183      10.00000000      -1.89212059      -0.45561148       0.05608452
C        4.99842492       8.37232189      10.00000000       0.86332571       0.21337763      -0.03916592
C        6.25024099       9.03652569      10.00000000      -0.58017169      -0.16353688       0.06129832
C        6.19948042      10.45238139      10.00000000       0.24461142       0.13278311       0.02176240
Pt       0.64722720       6.58994552      10.00000000       5.47433667       2.11267328      -0.72188658
H        0.64722720       6.58994552      11.55000000       0.40637698       0.09273756       1.36359487
H       -1.23757445       6.11658101      11.10000000       0.83087091       0.57565792      -0.00891515
