31
Lattice="9.84 0.0 0.0 4.92 8.521689973238876 0.0 0.0 0.0 20.0" Properties=species:S:1:pos:R:3 pbc="T T F"
C       -4.90407279       2.72825394      10.00000000
C       -4.95509823       4.14406101      10.00000000
C       -3.70324291       4.80768718      10.00000000
C       -3.66224620       6.22199923      10.00000000
C       -2.38584244       6.87990464      10.00000000
C       -2.34260280       8.31639578      10.00000000
C       -1.12011677       9.07272175      10.00000000
C       -1.18885840      10.50678026      10.00000000
C       -2.43055663       2.68615078      10.00000000
C       -2.47816054       4.08081684      10.00000000
C       -1.24980115       4.73157830      10.00000000
N       -1.23757445       6.11658101      10.00000000
N        0.11440283       8.45981585      10.00000000
C        1.30792642       9.16224746      10.00000000
C        1.25803020      10.55216557      10.00000000
C        0.03720704       2.62807678      10.00000000
C       -0.01311689       4.01783507      10.00000000
N        1.17960686       4.71982639      10.00000000
N        2.53175081       7.06378150      10.00000000
C        2.54438514       8.44872938      10.00000000
C        3.77341498       9.09884503      10.00000000
C        3.72607066      10.49363473      10.00000000
C        2.48403183       2.67372211      10.00000000
C        2.41500233       4.10756281      10.00000000
C        3.63739856       4.86418701      10.00000000
C        3.68067784       6.30038185      10.00000000
C        4.95710118       6.95791183      10.00000000
C        4.99842492       8.37232189      10.00000000
C        6.25024099       9.03652569      10.00000000
C        6.19948042      10.45238139      10.00000000
Pt       0.64722720       6.58994552      10.00000000
